NumberOfAtoms 343
NumberOfSpecies 1
LatticeConstant 1.0 Ang
%block LatticeVectors
-14.805  14.805  14.805
 14.805 -14.805  14.805
 14.805  14.805 -14.805
%endblock LatticeVectors
AtomicCoordinatesFormat  Ang
%block AtomicCoordinatesAndAtomicSpecies
0.000000 0.000000 0.000000 1
-2.115000 2.115000 2.115000 1
-4.230000 4.230000 4.230000 1
-6.345000 6.345000 6.345000 1
-8.460000 8.460000 8.460000 1
-10.575000 10.575000 10.575000 1
-12.690000 12.690000 12.690000 1
2.115000 -2.115000 2.115000 1
0.000000 0.000000 4.230000 1
-2.115000 2.115000 6.345000 1
-4.230000 4.230000 8.460000 1
-6.345000 6.345000 10.575000 1
-8.460000 8.460000 12.690000 1
-10.575000 10.575000 14.805000 1
4.230000 -4.230000 4.230000 1
2.115000 -2.115000 6.345000 1
0.000000 0.000000 8.460000 1
-2.115000 2.115000 10.575000 1
-4.230000 4.230000 12.690000 1
-6.345000 6.345000 14.805000 1
-8.460000 8.460000 16.920000 1
6.345000 -6.345000 6.345000 1
4.230000 -4.230000 8.460000 1
2.115000 -2.115000 10.575000 1
0.000000 0.000000 12.690000 1
-2.115000 2.115000 14.805000 1
-4.230000 4.230000 16.920000 1
-6.345000 6.345000 19.035000 1
8.460000 -8.460000 8.460000 1
6.345000 -6.345000 10.575000 1
4.230000 -4.230000 12.690000 1
2.115000 -2.115000 14.805000 1
0.000000 0.000000 16.920000 1
-2.115000 2.115000 19.035000 1
-4.230000 4.230000 21.150000 1
10.575000 -10.575000 10.575000 1
8.460000 -8.460000 12.690000 1
6.345000 -6.345000 14.805000 1
4.230000 -4.230000 16.920000 1
2.115000 -2.115000 19.035000 1
0.000000 0.000000 21.150000 1
-2.115000 2.115000 23.265000 1
12.690000 -12.690000 12.690000 1
10.575000 -10.575000 14.805000 1
8.460000 -8.460000 16.920000 1
6.345000 -6.345000 19.035000 1
4.230000 -4.230000 21.150000 1
2.115000 -2.115000 23.265000 1
0.000000 0.000000 25.380000 1
2.115000 2.115000 -2.115000 1
0.000000 4.230000 0.000000 1
-2.115000 6.345000 2.115000 1
-4.230000 8.460000 4.230000 1
-6.345000 10.575000 6.345000 1
-8.460000 12.690000 8.460000 1
-10.575000 14.805000 10.575000 1
4.230000 0.000000 0.000000 1
2.115000 2.115000 2.115000 1
0.000000 4.230000 4.230000 1
-2.115000 6.345000 6.345000 1
-4.230000 8.460000 8.460000 1
-6.345000 10.575000 10.575000 1
-8.460000 12.690000 12.690000 1
6.345000 -2.115000 2.115000 1
4.230000 0.000000 4.230000 1
2.115000 2.115000 6.345000 1
0.000000 4.230000 8.460000 1
-2.115000 6.345000 10.575000 1
-4.230000 8.460000 12.690000 1
-6.345000 10.575000 14.805000 1
8.460000 -4.230000 4.230000 1
6.345000 -2.115000 6.345000 1
4.230000 0.000000 8.460000 1
2.115000 2.115000 10.575000 1
0.000000 4.230000 12.690000 1
-2.115000 6.345000 14.805000 1
-4.230000 8.460000 16.920000 1
10.575000 -6.345000 6.345000 1
8.460000 -4.230000 8.460000 1
6.345000 -2.115000 10.575000 1
4.230000 0.000000 12.690000 1
2.115000 2.115000 14.805000 1
0.000000 4.230000 16.920000 1
-2.115000 6.345000 19.035000 1
12.690000 -8.460000 8.460000 1
10.575000 -6.345000 10.575000 1
8.460000 -4.230000 12.690000 1
6.345000 -2.115000 14.805000 1
4.230000 0.000000 16.920000 1
2.115000 2.115000 19.035000 1
0.000000 4.230000 21.150000 1
14.805000 -10.575000 10.575000 1
12.690000 -8.460000 12.690000 1
10.575000 -6.345000 14.805000 1
8.460000 -4.230000 16.920000 1
6.345000 -2.115000 19.035000 1
4.230000 0.000000 21.150000 1
2.115000 2.115000 23.265000 1
4.230000 4.230000 -4.230000 1
2.115000 6.345000 -2.115000 1
0.000000 8.460000 0.000000 1
-2.115000 10.575000 2.115000 1
-4.230000 12.690000 4.230000 1
-6.345000 14.805000 6.345000 1
-8.460000 16.920000 8.460000 1
6.345000 2.115000 -2.115000 1
4.230000 4.230000 0.000000 1
2.115000 6.345000 2.115000 1
0.000000 8.460000 4.230000 1
-2.115000 10.575000 6.345000 1
-4.230000 12.690000 8.460000 1
-6.345000 14.805000 10.575000 1
8.460000 0.000000 0.000000 1
6.345000 2.115000 2.115000 1
4.230000 4.230000 4.230000 1
2.115000 6.345000 6.345000 1
0.000000 8.460000 8.460000 1
-2.115000 10.575000 10.575000 1
-4.230000 12.690000 12.690000 1
10.575000 -2.115000 2.115000 1
8.460000 0.000000 4.230000 1
6.345000 2.115000 6.345000 1
4.230000 4.230000 8.460000 1
2.115000 6.345000 10.575000 1
0.000000 8.460000 12.690000 1
-2.115000 10.575000 14.805000 1
12.690000 -4.230000 4.230000 1
10.575000 -2.115000 6.345000 1
8.460000 0.000000 8.460000 1
6.345000 2.115000 10.575000 1
4.230000 4.230000 12.690000 1
2.115000 6.345000 14.805000 1
0.000000 8.460000 16.920000 1
14.805000 -6.345000 6.345000 1
12.690000 -4.230000 8.460000 1
10.575000 -2.115000 10.575000 1
8.460000 0.000000 12.690000 1
6.345000 2.115000 14.805000 1
4.230000 4.230000 16.920000 1
2.115000 6.345000 19.035000 1
16.920000 -8.460000 8.460000 1
14.805000 -6.345000 10.575000 1
12.690000 -4.230000 12.690000 1
10.575000 -2.115000 14.805000 1
8.460000 0.000000 16.920000 1
6.345000 2.115000 19.035000 1
4.230000 4.230000 21.150000 1
6.345000 6.345000 -6.345000 1
4.230000 8.460000 -4.230000 1
2.115000 10.575000 -2.115000 1
0.000000 12.690000 0.000000 1
-2.115000 14.805000 2.115000 1
-4.230000 16.920000 4.230000 1
-6.345000 19.035000 6.345000 1
8.460000 4.230000 -4.230000 1
6.345000 6.345000 -2.115000 1
4.230000 8.460000 0.000000 1
2.115000 10.575000 2.115000 1
0.000000 12.690000 4.230000 1
-2.115000 14.805000 6.345000 1
-4.230000 16.920000 8.460000 1
10.575000 2.115000 -2.115000 1
8.460000 4.230000 0.000000 1
6.345000 6.345000 2.115000 1
4.230000 8.460000 4.230000 1
2.115000 10.575000 6.345000 1
0.000000 12.690000 8.460000 1
-2.115000 14.805000 10.575000 1
12.690000 0.000000 0.000000 1
10.575000 2.115000 2.115000 1
8.460000 4.230000 4.230000 1
6.345000 6.345000 6.345000 1
4.230000 8.460000 8.460000 1
2.115000 10.575000 10.575000 1
0.000000 12.690000 12.690000 1
14.805000 -2.115000 2.115000 1
12.690000 0.000000 4.230000 1
10.575000 2.115000 6.345000 1
8.460000 4.230000 8.460000 1
6.345000 6.345000 10.575000 1
4.230000 8.460000 12.690000 1
2.115000 10.575000 14.805000 1
16.920000 -4.230000 4.230000 1
14.805000 -2.115000 6.345000 1
12.690000 0.000000 8.460000 1
10.575000 2.115000 10.575000 1
8.460000 4.230000 12.690000 1
6.345000 6.345000 14.805000 1
4.230000 8.460000 16.920000 1
19.035000 -6.345000 6.345000 1
16.920000 -4.230000 8.460000 1
14.805000 -2.115000 10.575000 1
12.690000 0.000000 12.690000 1
10.575000 2.115000 14.805000 1
8.460000 4.230000 16.920000 1
6.345000 6.345000 19.035000 1
8.460000 8.460000 -8.460000 1
6.345000 10.575000 -6.345000 1
4.230000 12.690000 -4.230000 1
2.115000 14.805000 -2.115000 1
0.000000 16.920000 0.000000 1
-2.115000 19.035000 2.115000 1
-4.230000 21.150000 4.230000 1
10.575000 6.345000 -6.345000 1
8.460000 8.460000 -4.230000 1
6.345000 10.575000 -2.115000 1
4.230000 12.690000 0.000000 1
2.115000 14.805000 2.115000 1
0.000000 16.920000 4.230000 1
-2.115000 19.035000 6.345000 1
12.690000 4.230000 -4.230000 1
10.575000 6.345000 -2.115000 1
8.460000 8.460000 0.000000 1
6.345000 10.575000 2.115000 1
4.230000 12.690000 4.230000 1
2.115000 14.805000 6.345000 1
0.000000 16.920000 8.460000 1
14.805000 2.115000 -2.115000 1
12.690000 4.230000 0.000000 1
10.575000 6.345000 2.115000 1
8.460000 8.460000 4.230000 1
6.345000 10.575000 6.345000 1
4.230000 12.690000 8.460000 1
2.115000 14.805000 10.575000 1
16.920000 0.000000 0.000000 1
14.805000 2.115000 2.115000 1
12.690000 4.230000 4.230000 1
10.575000 6.345000 6.345000 1
8.460000 8.460000 8.460000 1
6.345000 10.575000 10.575000 1
4.230000 12.690000 12.690000 1
19.035000 -2.115000 2.115000 1
16.920000 0.000000 4.230000 1
14.805000 2.115000 6.345000 1
12.690000 4.230000 8.460000 1
10.575000 6.345000 10.575000 1
8.460000 8.460000 12.690000 1
6.345000 10.575000 14.805000 1
21.150000 -4.230000 4.230000 1
19.035000 -2.115000 6.345000 1
16.920000 0.000000 8.460000 1
14.805000 2.115000 10.575000 1
12.690000 4.230000 12.690000 1
10.575000 6.345000 14.805000 1
8.460000 8.460000 16.920000 1
10.575000 10.575000 -10.575000 1
8.460000 12.690000 -8.460000 1
6.345000 14.805000 -6.345000 1
4.230000 16.920000 -4.230000 1
2.115000 19.035000 -2.115000 1
0.000000 21.150000 0.000000 1
-2.115000 23.265000 2.115000 1
12.690000 8.460000 -8.460000 1
10.575000 10.575000 -6.345000 1
8.460000 12.690000 -4.230000 1
6.345000 14.805000 -2.115000 1
4.230000 16.920000 0.000000 1
2.115000 19.035000 2.115000 1
0.000000 21.150000 4.230000 1
14.805000 6.345000 -6.345000 1
12.690000 8.460000 -4.230000 1
10.575000 10.575000 -2.115000 1
8.460000 12.690000 0.000000 1
6.345000 14.805000 2.115000 1
4.230000 16.920000 4.230000 1
2.115000 19.035000 6.345000 1
16.920000 4.230000 -4.230000 1
14.805000 6.345000 -2.115000 1
12.690000 8.460000 0.000000 1
10.575000 10.575000 2.115000 1
8.460000 12.690000 4.230000 1
6.345000 14.805000 6.345000 1
4.230000 16.920000 8.460000 1
19.035000 2.115000 -2.115000 1
16.920000 4.230000 0.000000 1
14.805000 6.345000 2.115000 1
12.690000 8.460000 4.230000 1
10.575000 10.575000 6.345000 1
8.460000 12.690000 8.460000 1
6.345000 14.805000 10.575000 1
21.150000 0.000000 0.000000 1
19.035000 2.115000 2.115000 1
16.920000 4.230000 4.230000 1
14.805000 6.345000 6.345000 1
12.690000 8.460000 8.460000 1
10.575000 10.575000 10.575000 1
8.460000 12.690000 12.690000 1
23.265000 -2.115000 2.115000 1
21.150000 0.000000 4.230000 1
19.035000 2.115000 6.345000 1
16.920000 4.230000 8.460000 1
14.805000 6.345000 10.575000 1
12.690000 8.460000 12.690000 1
10.575000 10.575000 14.805000 1
12.690000 12.690000 -12.690000 1
10.575000 14.805000 -10.575000 1
8.460000 16.920000 -8.460000 1
6.345000 19.035000 -6.345000 1
4.230000 21.150000 -4.230000 1
2.115000 23.265000 -2.115000 1
0.000000 25.380000 0.000000 1
14.805000 10.575000 -10.575000 1
12.690000 12.690000 -8.460000 1
10.575000 14.805000 -6.345000 1
8.460000 16.920000 -4.230000 1
6.345000 19.035000 -2.115000 1
4.230000 21.150000 0.000000 1
2.115000 23.265000 2.115000 1
16.920000 8.460000 -8.460000 1
14.805000 10.575000 -6.345000 1
12.690000 12.690000 -4.230000 1
10.575000 14.805000 -2.115000 1
8.460000 16.920000 0.000000 1
6.345000 19.035000 2.115000 1
4.230000 21.150000 4.230000 1
19.035000 6.345000 -6.345000 1
16.920000 8.460000 -4.230000 1
14.805000 10.575000 -2.115000 1
12.690000 12.690000 0.000000 1
10.575000 14.805000 2.115000 1
8.460000 16.920000 4.230000 1
6.345000 19.035000 6.345000 1
21.150000 4.230000 -4.230000 1
19.035000 6.345000 -2.115000 1
16.920000 8.460000 0.000000 1
14.805000 10.575000 2.115000 1
12.690000 12.690000 4.230000 1
10.575000 14.805000 6.345000 1
8.460000 16.920000 8.460000 1
23.265000 2.115000 -2.115000 1
21.150000 4.230000 0.000000 1
19.035000 6.345000 2.115000 1
16.920000 8.460000 4.230000 1
14.805000 10.575000 6.345000 1
12.690000 12.690000 8.460000 1
10.575000 14.805000 10.575000 1
25.380000 0.000000 0.000000 1
23.265000 2.115000 2.115000 1
21.150000 4.230000 4.230000 1
19.035000 6.345000 6.345000 1
16.920000 8.460000 8.460000 1
14.805000 10.575000 10.575000 1
12.690000 12.690000 12.690000 1
%endblock AtomicCoordinatesAndAtomicSpecies
