NumberOfAtoms 686
NumberOfSpecies 1
LatticeConstant 1.0 Ang
%block LatticeVectors
   -14.805000000     14.805000000     14.805000000 
    14.805000000    -14.805000000     14.805000000 
    14.805000000     14.805000000    -14.805000000 
%endblock LatticeVectors
AtomicCoordinatesFormat  Ang
%block AtomicCoordinatesAndAtomicSpecies
     0.000000000      0.000000000      0.000000000 1
    -2.115000000      2.115000000      2.115000000 1
    -4.230000000      4.230000000      4.230000000 1
    -6.345000000      6.345000000      6.345000000 1
    -8.460000000      8.460000000      8.460000000 1
   -10.575000000     10.575000000     10.575000000 1
   -12.690000000     12.690000000     12.690000000 1
     2.115000000     -2.115000000      2.115000000 1
     0.000000000      0.000000000      4.230000000 1
    -2.115000000      2.115000000      6.345000000 1
    -4.230000000      4.230000000      8.460000000 1
    -6.345000000      6.345000000     10.575000000 1
    -8.460000000      8.460000000     12.690000000 1
   -10.575000000     10.575000000     14.805000000 1
     4.230000000     -4.230000000      4.230000000 1
     2.115000000     -2.115000000      6.345000000 1
     0.000000000      0.000000000      8.460000000 1
    -2.115000000      2.115000000     10.575000000 1
    -4.230000000      4.230000000     12.690000000 1
    -6.345000000      6.345000000     14.805000000 1
    -8.460000000      8.460000000     16.920000000 1
     6.345000000     -6.345000000      6.345000000 1
     4.230000000     -4.230000000      8.460000000 1
     2.115000000     -2.115000000     10.575000000 1
     0.000000000      0.000000000     12.690000000 1
    -2.115000000      2.115000000     14.805000000 1
    -4.230000000      4.230000000     16.920000000 1
    -6.345000000      6.345000000     19.035000000 1
     8.460000000     -8.460000000      8.460000000 1
     6.345000000     -6.345000000     10.575000000 1
     4.230000000     -4.230000000     12.690000000 1
     2.115000000     -2.115000000     14.805000000 1
     0.000000000      0.000000000     16.920000000 1
    -2.115000000      2.115000000     19.035000000 1
    -4.230000000      4.230000000     21.150000000 1
    10.575000000    -10.575000000     10.575000000 1
     8.460000000     -8.460000000     12.690000000 1
     6.345000000     -6.345000000     14.805000000 1
     4.230000000     -4.230000000     16.920000000 1
     2.115000000     -2.115000000     19.035000000 1
     0.000000000      0.000000000     21.150000000 1
    -2.115000000      2.115000000     23.265000000 1
    12.690000000    -12.690000000     12.690000000 1
    10.575000000    -10.575000000     14.805000000 1
     8.460000000     -8.460000000     16.920000000 1
     6.345000000     -6.345000000     19.035000000 1
     4.230000000     -4.230000000     21.150000000 1
     2.115000000     -2.115000000     23.265000000 1
     0.000000000      0.000000000     25.380000000 1
     2.115000000      2.115000000     -2.115000000 1
     0.000000000      4.230000000      0.000000000 1
    -2.115000000      6.345000000      2.115000000 1
    -4.230000000      8.460000000      4.230000000 1
    -6.345000000     10.575000000      6.345000000 1
    -8.460000000     12.690000000      8.460000000 1
   -10.575000000     14.805000000     10.575000000 1
     4.230000000      0.000000000      0.000000000 1
     2.115000000      2.115000000      2.115000000 1
     0.000000000      4.230000000      4.230000000 1
    -2.115000000      6.345000000      6.345000000 1
    -4.230000000      8.460000000      8.460000000 1
    -6.345000000     10.575000000     10.575000000 1
    -8.460000000     12.690000000     12.690000000 1
     6.345000000     -2.115000000      2.115000000 1
     4.230000000      0.000000000      4.230000000 1
     2.115000000      2.115000000      6.345000000 1
     0.000000000      4.230000000      8.460000000 1
    -2.115000000      6.345000000     10.575000000 1
    -4.230000000      8.460000000     12.690000000 1
    -6.345000000     10.575000000     14.805000000 1
     8.460000000     -4.230000000      4.230000000 1
     6.345000000     -2.115000000      6.345000000 1
     4.230000000      0.000000000      8.460000000 1
     2.115000000      2.115000000     10.575000000 1
     0.000000000      4.230000000     12.690000000 1
    -2.115000000      6.345000000     14.805000000 1
    -4.230000000      8.460000000     16.920000000 1
    10.575000000     -6.345000000      6.345000000 1
     8.460000000     -4.230000000      8.460000000 1
     6.345000000     -2.115000000     10.575000000 1
     4.230000000      0.000000000     12.690000000 1
     2.115000000      2.115000000     14.805000000 1
     0.000000000      4.230000000     16.920000000 1
    -2.115000000      6.345000000     19.035000000 1
    12.690000000     -8.460000000      8.460000000 1
    10.575000000     -6.345000000     10.575000000 1
     8.460000000     -4.230000000     12.690000000 1
     6.345000000     -2.115000000     14.805000000 1
     4.230000000      0.000000000     16.920000000 1
     2.115000000      2.115000000     19.035000000 1
     0.000000000      4.230000000     21.150000000 1
    14.805000000    -10.575000000     10.575000000 1
    12.690000000     -8.460000000     12.690000000 1
    10.575000000     -6.345000000     14.805000000 1
     8.460000000     -4.230000000     16.920000000 1
     6.345000000     -2.115000000     19.035000000 1
     4.230000000      0.000000000     21.150000000 1
     2.115000000      2.115000000     23.265000000 1
     4.230000000      4.230000000     -4.230000000 1
     2.115000000      6.345000000     -2.115000000 1
     0.000000000      8.460000000      0.000000000 1
    -2.115000000     10.575000000      2.115000000 1
    -4.230000000     12.690000000      4.230000000 1
    -6.345000000     14.805000000      6.345000000 1
    -8.460000000     16.920000000      8.460000000 1
     6.345000000      2.115000000     -2.115000000 1
     4.230000000      4.230000000      0.000000000 1
     2.115000000      6.345000000      2.115000000 1
     0.000000000      8.460000000      4.230000000 1
    -2.115000000     10.575000000      6.345000000 1
    -4.230000000     12.690000000      8.460000000 1
    -6.345000000     14.805000000     10.575000000 1
     8.460000000      0.000000000      0.000000000 1
     6.345000000      2.115000000      2.115000000 1
     4.230000000      4.230000000      4.230000000 1
     2.115000000      6.345000000      6.345000000 1
     0.000000000      8.460000000      8.460000000 1
    -2.115000000     10.575000000     10.575000000 1
    -4.230000000     12.690000000     12.690000000 1
    10.575000000     -2.115000000      2.115000000 1
     8.460000000      0.000000000      4.230000000 1
     6.345000000      2.115000000      6.345000000 1
     4.230000000      4.230000000      8.460000000 1
     2.115000000      6.345000000     10.575000000 1
     0.000000000      8.460000000     12.690000000 1
    -2.115000000     10.575000000     14.805000000 1
    12.690000000     -4.230000000      4.230000000 1
    10.575000000     -2.115000000      6.345000000 1
     8.460000000      0.000000000      8.460000000 1
     6.345000000      2.115000000     10.575000000 1
     4.230000000      4.230000000     12.690000000 1
     2.115000000      6.345000000     14.805000000 1
     0.000000000      8.460000000     16.920000000 1
    14.805000000     -6.345000000      6.345000000 1
    12.690000000     -4.230000000      8.460000000 1
    10.575000000     -2.115000000     10.575000000 1
     8.460000000      0.000000000     12.690000000 1
     6.345000000      2.115000000     14.805000000 1
     4.230000000      4.230000000     16.920000000 1
     2.115000000      6.345000000     19.035000000 1
    16.920000000     -8.460000000      8.460000000 1
    14.805000000     -6.345000000     10.575000000 1
    12.690000000     -4.230000000     12.690000000 1
    10.575000000     -2.115000000     14.805000000 1
     8.460000000      0.000000000     16.920000000 1
     6.345000000      2.115000000     19.035000000 1
     4.230000000      4.230000000     21.150000000 1
     6.345000000      6.345000000     -6.345000000 1
     4.230000000      8.460000000     -4.230000000 1
     2.115000000     10.575000000     -2.115000000 1
     0.000000000     12.690000000      0.000000000 1
    -2.115000000     14.805000000      2.115000000 1
    -4.230000000     16.920000000      4.230000000 1
    -6.345000000     19.035000000      6.345000000 1
     8.460000000      4.230000000     -4.230000000 1
     6.345000000      6.345000000     -2.115000000 1
     4.230000000      8.460000000      0.000000000 1
     2.115000000     10.575000000      2.115000000 1
     0.000000000     12.690000000      4.230000000 1
    -2.115000000     14.805000000      6.345000000 1
    -4.230000000     16.920000000      8.460000000 1
    10.575000000      2.115000000     -2.115000000 1
     8.460000000      4.230000000      0.000000000 1
     6.345000000      6.345000000      2.115000000 1
     4.230000000      8.460000000      4.230000000 1
     2.115000000     10.575000000      6.345000000 1
     0.000000000     12.690000000      8.460000000 1
    -2.115000000     14.805000000     10.575000000 1
    12.690000000      0.000000000      0.000000000 1
    10.575000000      2.115000000      2.115000000 1
     8.460000000      4.230000000      4.230000000 1
     6.345000000      6.345000000      6.345000000 1
     4.230000000      8.460000000      8.460000000 1
     2.115000000     10.575000000     10.575000000 1
     0.000000000     12.690000000     12.690000000 1
    14.805000000     -2.115000000      2.115000000 1
    12.690000000      0.000000000      4.230000000 1
    10.575000000      2.115000000      6.345000000 1
     8.460000000      4.230000000      8.460000000 1
     6.345000000      6.345000000     10.575000000 1
     4.230000000      8.460000000     12.690000000 1
     2.115000000     10.575000000     14.805000000 1
    16.920000000     -4.230000000      4.230000000 1
    14.805000000     -2.115000000      6.345000000 1
    12.690000000      0.000000000      8.460000000 1
    10.575000000      2.115000000     10.575000000 1
     8.460000000      4.230000000     12.690000000 1
     6.345000000      6.345000000     14.805000000 1
     4.230000000      8.460000000     16.920000000 1
    19.035000000     -6.345000000      6.345000000 1
    16.920000000     -4.230000000      8.460000000 1
    14.805000000     -2.115000000     10.575000000 1
    12.690000000      0.000000000     12.690000000 1
    10.575000000      2.115000000     14.805000000 1
     8.460000000      4.230000000     16.920000000 1
     6.345000000      6.345000000     19.035000000 1
     8.460000000      8.460000000     -8.460000000 1
     6.345000000     10.575000000     -6.345000000 1
     4.230000000     12.690000000     -4.230000000 1
     2.115000000     14.805000000     -2.115000000 1
     0.000000000     16.920000000      0.000000000 1
    -2.115000000     19.035000000      2.115000000 1
    -4.230000000     21.150000000      4.230000000 1
    10.575000000      6.345000000     -6.345000000 1
     8.460000000      8.460000000     -4.230000000 1
     6.345000000     10.575000000     -2.115000000 1
     4.230000000     12.690000000      0.000000000 1
     2.115000000     14.805000000      2.115000000 1
     0.000000000     16.920000000      4.230000000 1
    -2.115000000     19.035000000      6.345000000 1
    12.690000000      4.230000000     -4.230000000 1
    10.575000000      6.345000000     -2.115000000 1
     8.460000000      8.460000000      0.000000000 1
     6.345000000     10.575000000      2.115000000 1
     4.230000000     12.690000000      4.230000000 1
     2.115000000     14.805000000      6.345000000 1
     0.000000000     16.920000000      8.460000000 1
    14.805000000      2.115000000     -2.115000000 1
    12.690000000      4.230000000      0.000000000 1
    10.575000000      6.345000000      2.115000000 1
     8.460000000      8.460000000      4.230000000 1
     6.345000000     10.575000000      6.345000000 1
     4.230000000     12.690000000      8.460000000 1
     2.115000000     14.805000000     10.575000000 1
    16.920000000      0.000000000      0.000000000 1
    14.805000000      2.115000000      2.115000000 1
    12.690000000      4.230000000      4.230000000 1
    10.575000000      6.345000000      6.345000000 1
     8.460000000      8.460000000      8.460000000 1
     6.345000000     10.575000000     10.575000000 1
     4.230000000     12.690000000     12.690000000 1
    19.035000000     -2.115000000      2.115000000 1
    16.920000000      0.000000000      4.230000000 1
    14.805000000      2.115000000      6.345000000 1
    12.690000000      4.230000000      8.460000000 1
    10.575000000      6.345000000     10.575000000 1
     8.460000000      8.460000000     12.690000000 1
     6.345000000     10.575000000     14.805000000 1
    21.150000000     -4.230000000      4.230000000 1
    19.035000000     -2.115000000      6.345000000 1
    16.920000000      0.000000000      8.460000000 1
    14.805000000      2.115000000     10.575000000 1
    12.690000000      4.230000000     12.690000000 1
    10.575000000      6.345000000     14.805000000 1
     8.460000000      8.460000000     16.920000000 1
    10.575000000     10.575000000    -10.575000000 1
     8.460000000     12.690000000     -8.460000000 1
     6.345000000     14.805000000     -6.345000000 1
     4.230000000     16.920000000     -4.230000000 1
     2.115000000     19.035000000     -2.115000000 1
     0.000000000     21.150000000      0.000000000 1
    -2.115000000     23.265000000      2.115000000 1
    12.690000000      8.460000000     -8.460000000 1
    10.575000000     10.575000000     -6.345000000 1
     8.460000000     12.690000000     -4.230000000 1
     6.345000000     14.805000000     -2.115000000 1
     4.230000000     16.920000000      0.000000000 1
     2.115000000     19.035000000      2.115000000 1
     0.000000000     21.150000000      4.230000000 1
    14.805000000      6.345000000     -6.345000000 1
    12.690000000      8.460000000     -4.230000000 1
    10.575000000     10.575000000     -2.115000000 1
     8.460000000     12.690000000      0.000000000 1
     6.345000000     14.805000000      2.115000000 1
     4.230000000     16.920000000      4.230000000 1
     2.115000000     19.035000000      6.345000000 1
    16.920000000      4.230000000     -4.230000000 1
    14.805000000      6.345000000     -2.115000000 1
    12.690000000      8.460000000      0.000000000 1
    10.575000000     10.575000000      2.115000000 1
     8.460000000     12.690000000      4.230000000 1
     6.345000000     14.805000000      6.345000000 1
     4.230000000     16.920000000      8.460000000 1
    19.035000000      2.115000000     -2.115000000 1
    16.920000000      4.230000000      0.000000000 1
    14.805000000      6.345000000      2.115000000 1
    12.690000000      8.460000000      4.230000000 1
    10.575000000     10.575000000      6.345000000 1
     8.460000000     12.690000000      8.460000000 1
     6.345000000     14.805000000     10.575000000 1
    21.150000000      0.000000000      0.000000000 1
    19.035000000      2.115000000      2.115000000 1
    16.920000000      4.230000000      4.230000000 1
    14.805000000      6.345000000      6.345000000 1
    12.690000000      8.460000000      8.460000000 1
    10.575000000     10.575000000     10.575000000 1
     8.460000000     12.690000000     12.690000000 1
    23.265000000     -2.115000000      2.115000000 1
    21.150000000      0.000000000      4.230000000 1
    19.035000000      2.115000000      6.345000000 1
    16.920000000      4.230000000      8.460000000 1
    14.805000000      6.345000000     10.575000000 1
    12.690000000      8.460000000     12.690000000 1
    10.575000000     10.575000000     14.805000000 1
    12.690000000     12.690000000    -12.690000000 1
    10.575000000     14.805000000    -10.575000000 1
     8.460000000     16.920000000     -8.460000000 1
     6.345000000     19.035000000     -6.345000000 1
     4.230000000     21.150000000     -4.230000000 1
     2.115000000     23.265000000     -2.115000000 1
     0.000000000     25.380000000      0.000000000 1
    14.805000000     10.575000000    -10.575000000 1
    12.690000000     12.690000000     -8.460000000 1
    10.575000000     14.805000000     -6.345000000 1
     8.460000000     16.920000000     -4.230000000 1
     6.345000000     19.035000000     -2.115000000 1
     4.230000000     21.150000000      0.000000000 1
     2.115000000     23.265000000      2.115000000 1
    16.920000000      8.460000000     -8.460000000 1
    14.805000000     10.575000000     -6.345000000 1
    12.690000000     12.690000000     -4.230000000 1
    10.575000000     14.805000000     -2.115000000 1
     8.460000000     16.920000000      0.000000000 1
     6.345000000     19.035000000      2.115000000 1
     4.230000000     21.150000000      4.230000000 1
    19.035000000      6.345000000     -6.345000000 1
    16.920000000      8.460000000     -4.230000000 1
    14.805000000     10.575000000     -2.115000000 1
    12.690000000     12.690000000      0.000000000 1
    10.575000000     14.805000000      2.115000000 1
     8.460000000     16.920000000      4.230000000 1
     6.345000000     19.035000000      6.345000000 1
    21.150000000      4.230000000     -4.230000000 1
    19.035000000      6.345000000     -2.115000000 1
    16.920000000      8.460000000      0.000000000 1
    14.805000000     10.575000000      2.115000000 1
    12.690000000     12.690000000      4.230000000 1
    10.575000000     14.805000000      6.345000000 1
     8.460000000     16.920000000      8.460000000 1
    23.265000000      2.115000000     -2.115000000 1
    21.150000000      4.230000000      0.000000000 1
    19.035000000      6.345000000      2.115000000 1
    16.920000000      8.460000000      4.230000000 1
    14.805000000     10.575000000      6.345000000 1
    12.690000000     12.690000000      8.460000000 1
    10.575000000     14.805000000     10.575000000 1
    25.380000000      0.000000000      0.000000000 1
    23.265000000      2.115000000      2.115000000 1
    21.150000000      4.230000000      4.230000000 1
    19.035000000      6.345000000      6.345000000 1
    16.920000000      8.460000000      8.460000000 1
    14.805000000     10.575000000     10.575000000 1
    12.690000000     12.690000000     12.690000000 1
     0.000000000     -0.020000000      0.000000000 1
    -2.115000000      2.095000000      2.115000000 1
    -4.230000000      4.210000000      4.230000000 1
    -6.345000000      6.325000000      6.345000000 1
    -8.460000000      8.440000000      8.460000000 1
   -10.575000000     10.555000000     10.575000000 1
   -12.690000000     12.670000000     12.690000000 1
     2.115000000     -2.135000000      2.115000000 1
     0.000000000     -0.020000000      4.230000000 1
    -2.115000000      2.095000000      6.345000000 1
    -4.230000000      4.210000000      8.460000000 1
    -6.345000000      6.325000000     10.575000000 1
    -8.460000000      8.440000000     12.690000000 1
   -10.575000000     10.555000000     14.805000000 1
     4.230000000     -4.250000000      4.230000000 1
     2.115000000     -2.135000000      6.345000000 1
     0.000000000     -0.020000000      8.460000000 1
    -2.115000000      2.095000000     10.575000000 1
    -4.230000000      4.210000000     12.690000000 1
    -6.345000000      6.325000000     14.805000000 1
    -8.460000000      8.440000000     16.920000000 1
     6.345000000     -6.365000000      6.345000000 1
     4.230000000     -4.250000000      8.460000000 1
     2.115000000     -2.135000000     10.575000000 1
     0.000000000     -0.020000000     12.690000000 1
    -2.115000000      2.095000000     14.805000000 1
    -4.230000000      4.210000000     16.920000000 1
    -6.345000000      6.325000000     19.035000000 1
     8.460000000     -8.480000000      8.460000000 1
     6.345000000     -6.365000000     10.575000000 1
     4.230000000     -4.250000000     12.690000000 1
     2.115000000     -2.135000000     14.805000000 1
     0.000000000     -0.020000000     16.920000000 1
    -2.115000000      2.095000000     19.035000000 1
    -4.230000000      4.210000000     21.150000000 1
    10.575000000    -10.595000000     10.575000000 1
     8.460000000     -8.480000000     12.690000000 1
     6.345000000     -6.365000000     14.805000000 1
     4.230000000     -4.250000000     16.920000000 1
     2.115000000     -2.135000000     19.035000000 1
     0.000000000     -0.020000000     21.150000000 1
    -2.115000000      2.095000000     23.265000000 1
    12.690000000    -12.710000000     12.690000000 1
    10.575000000    -10.595000000     14.805000000 1
     8.460000000     -8.480000000     16.920000000 1
     6.345000000     -6.365000000     19.035000000 1
     4.230000000     -4.250000000     21.150000000 1
     2.115000000     -2.135000000     23.265000000 1
     0.000000000     -0.020000000     25.380000000 1
     2.115000000      2.095000000     -2.115000000 1
     0.000000000      4.210000000      0.000000000 1
    -2.115000000      6.325000000      2.115000000 1
    -4.230000000      8.440000000      4.230000000 1
    -6.345000000     10.555000000      6.345000000 1
    -8.460000000     12.670000000      8.460000000 1
   -10.575000000     14.785000000     10.575000000 1
     4.230000000     -0.020000000      0.000000000 1
     2.115000000      2.095000000      2.115000000 1
     0.000000000      4.210000000      4.230000000 1
    -2.115000000      6.325000000      6.345000000 1
    -4.230000000      8.440000000      8.460000000 1
    -6.345000000     10.555000000     10.575000000 1
    -8.460000000     12.670000000     12.690000000 1
     6.345000000     -2.135000000      2.115000000 1
     4.230000000     -0.020000000      4.230000000 1
     2.115000000      2.095000000      6.345000000 1
     0.000000000      4.210000000      8.460000000 1
    -2.115000000      6.325000000     10.575000000 1
    -4.230000000      8.440000000     12.690000000 1
    -6.345000000     10.555000000     14.805000000 1
     8.460000000     -4.250000000      4.230000000 1
     6.345000000     -2.135000000      6.345000000 1
     4.230000000     -0.020000000      8.460000000 1
     2.115000000      2.095000000     10.575000000 1
     0.000000000      4.210000000     12.690000000 1
    -2.115000000      6.325000000     14.805000000 1
    -4.230000000      8.440000000     16.920000000 1
    10.575000000     -6.365000000      6.345000000 1
     8.460000000     -4.250000000      8.460000000 1
     6.345000000     -2.135000000     10.575000000 1
     4.230000000     -0.020000000     12.690000000 1
     2.115000000      2.095000000     14.805000000 1
     0.000000000      4.210000000     16.920000000 1
    -2.115000000      6.325000000     19.035000000 1
    12.690000000     -8.480000000      8.460000000 1
    10.575000000     -6.365000000     10.575000000 1
     8.460000000     -4.250000000     12.690000000 1
     6.345000000     -2.135000000     14.805000000 1
     4.230000000     -0.020000000     16.920000000 1
     2.115000000      2.095000000     19.035000000 1
     0.000000000      4.210000000     21.150000000 1
    14.805000000    -10.595000000     10.575000000 1
    12.690000000     -8.480000000     12.690000000 1
    10.575000000     -6.365000000     14.805000000 1
     8.460000000     -4.250000000     16.920000000 1
     6.345000000     -2.135000000     19.035000000 1
     4.230000000     -0.020000000     21.150000000 1
     2.115000000      2.095000000     23.265000000 1
     4.230000000      4.210000000     -4.230000000 1
     2.115000000      6.325000000     -2.115000000 1
     0.000000000      8.440000000      0.000000000 1
    -2.115000000     10.555000000      2.115000000 1
    -4.230000000     12.670000000      4.230000000 1
    -6.345000000     14.785000000      6.345000000 1
    -8.460000000     16.900000000      8.460000000 1
     6.345000000      2.095000000     -2.115000000 1
     4.230000000      4.210000000      0.000000000 1
     2.115000000      6.325000000      2.115000000 1
     0.000000000      8.440000000      4.230000000 1
    -2.115000000     10.555000000      6.345000000 1
    -4.230000000     12.670000000      8.460000000 1
    -6.345000000     14.785000000     10.575000000 1
     8.460000000     -0.020000000      0.000000000 1
     6.345000000      2.095000000      2.115000000 1
     4.230000000      4.210000000      4.230000000 1
     2.115000000      6.325000000      6.345000000 1
     0.000000000      8.440000000      8.460000000 1
    -2.115000000     10.555000000     10.575000000 1
    -4.230000000     12.670000000     12.690000000 1
    10.575000000     -2.135000000      2.115000000 1
     8.460000000     -0.020000000      4.230000000 1
     6.345000000      2.095000000      6.345000000 1
     4.230000000      4.210000000      8.460000000 1
     2.115000000      6.325000000     10.575000000 1
     0.000000000      8.440000000     12.690000000 1
    -2.115000000     10.555000000     14.805000000 1
    12.690000000     -4.250000000      4.230000000 1
    10.575000000     -2.135000000      6.345000000 1
     8.460000000     -0.020000000      8.460000000 1
     6.345000000      2.095000000     10.575000000 1
     4.230000000      4.210000000     12.690000000 1
     2.115000000      6.325000000     14.805000000 1
     0.000000000      8.440000000     16.920000000 1
    14.805000000     -6.365000000      6.345000000 1
    12.690000000     -4.250000000      8.460000000 1
    10.575000000     -2.135000000     10.575000000 1
     8.460000000     -0.020000000     12.690000000 1
     6.345000000      2.095000000     14.805000000 1
     4.230000000      4.210000000     16.920000000 1
     2.115000000      6.325000000     19.035000000 1
    16.920000000     -8.480000000      8.460000000 1
    14.805000000     -6.365000000     10.575000000 1
    12.690000000     -4.250000000     12.690000000 1
    10.575000000     -2.135000000     14.805000000 1
     8.460000000     -0.020000000     16.920000000 1
     6.345000000      2.095000000     19.035000000 1
     4.230000000      4.210000000     21.150000000 1
     6.345000000      6.325000000     -6.345000000 1
     4.230000000      8.440000000     -4.230000000 1
     2.115000000     10.555000000     -2.115000000 1
     0.000000000     12.670000000      0.000000000 1
    -2.115000000     14.785000000      2.115000000 1
    -4.230000000     16.900000000      4.230000000 1
    -6.345000000     19.015000000      6.345000000 1
     8.460000000      4.210000000     -4.230000000 1
     6.345000000      6.325000000     -2.115000000 1
     4.230000000      8.440000000      0.000000000 1
     2.115000000     10.555000000      2.115000000 1
     0.000000000     12.670000000      4.230000000 1
    -2.115000000     14.785000000      6.345000000 1
    -4.230000000     16.900000000      8.460000000 1
    10.575000000      2.095000000     -2.115000000 1
     8.460000000      4.210000000      0.000000000 1
     6.345000000      6.325000000      2.115000000 1
     4.230000000      8.440000000      4.230000000 1
     2.115000000     10.555000000      6.345000000 1
     0.000000000     12.670000000      8.460000000 1
    -2.115000000     14.785000000     10.575000000 1
    12.690000000     -0.020000000      0.000000000 1
    10.575000000      2.095000000      2.115000000 1
     8.460000000      4.210000000      4.230000000 1
     6.345000000      6.325000000      6.345000000 1
     4.230000000      8.440000000      8.460000000 1
     2.115000000     10.555000000     10.575000000 1
     0.000000000     12.670000000     12.690000000 1
    14.805000000     -2.135000000      2.115000000 1
    12.690000000     -0.020000000      4.230000000 1
    10.575000000      2.095000000      6.345000000 1
     8.460000000      4.210000000      8.460000000 1
     6.345000000      6.325000000     10.575000000 1
     4.230000000      8.440000000     12.690000000 1
     2.115000000     10.555000000     14.805000000 1
    16.920000000     -4.250000000      4.230000000 1
    14.805000000     -2.135000000      6.345000000 1
    12.690000000     -0.020000000      8.460000000 1
    10.575000000      2.095000000     10.575000000 1
     8.460000000      4.210000000     12.690000000 1
     6.345000000      6.325000000     14.805000000 1
     4.230000000      8.440000000     16.920000000 1
    19.035000000     -6.365000000      6.345000000 1
    16.920000000     -4.250000000      8.460000000 1
    14.805000000     -2.135000000     10.575000000 1
    12.690000000     -0.020000000     12.690000000 1
    10.575000000      2.095000000     14.805000000 1
     8.460000000      4.210000000     16.920000000 1
     6.345000000      6.325000000     19.035000000 1
     8.460000000      8.440000000     -8.460000000 1
     6.345000000     10.555000000     -6.345000000 1
     4.230000000     12.670000000     -4.230000000 1
     2.115000000     14.785000000     -2.115000000 1
     0.000000000     16.900000000      0.000000000 1
    -2.115000000     19.015000000      2.115000000 1
    -4.230000000     21.130000000      4.230000000 1
    10.575000000      6.325000000     -6.345000000 1
     8.460000000      8.440000000     -4.230000000 1
     6.345000000     10.555000000     -2.115000000 1
     4.230000000     12.670000000      0.000000000 1
     2.115000000     14.785000000      2.115000000 1
     0.000000000     16.900000000      4.230000000 1
    -2.115000000     19.015000000      6.345000000 1
    12.690000000      4.210000000     -4.230000000 1
    10.575000000      6.325000000     -2.115000000 1
     8.460000000      8.440000000      0.000000000 1
     6.345000000     10.555000000      2.115000000 1
     4.230000000     12.670000000      4.230000000 1
     2.115000000     14.785000000      6.345000000 1