NumberOfAtoms 38
NumberOfSpecies 3
LatticeConstant 1.0 Ang
%block LatticeVectors
     7.734172103      0.000000000      0.000000000 
     0.000000000     10.937771080      0.000000000 
     0.000000000      0.000000000     13.078057368 
%endblock LatticeVectors
AtomicCoordinatesFormat  Ang
%block AtomicCoordinatesAndAtomicSpecies
     0.000000000      3.645923695      0.000000000 3 # 1
     2.578057369      3.645923695      0.000000000 3 # 2
     5.156114735      3.645923695      0.000000000 3 # 3
     0.000000000      7.291847389      0.000000000 3 # 4
     2.578057369      7.291847389      0.000000000 3 # 5
     5.156114735      7.291847389      0.000000000 3 # 6
     0.000000000     10.937771084      0.000000000 3 # 7
     2.578057369     10.937771084      0.000000000 3 # 8
     5.156114735     10.937771084      0.000000000 3 # 9
    -1.289028684      1.822961848      1.289028684 3 # 10
     1.289028685      1.822961848      1.289028684 3 # 11
     3.867086051      1.822961848      1.289028684 3 # 12
    -1.289028684      5.468885542      1.289028684 3 # 13
     1.289081601      5.468885542      1.289028684 3 # 14
     3.867086053      5.468885542      1.289028684 3 # 15
    -1.289028684      9.114809237      1.289028684 3 # 16
     1.289081601      9.114809237      1.289028684 3 # 17
     3.867086053      9.114809237      1.289028684 3 # 18
    -0.000114157     10.938764062      2.615409384 3 # 19
    -0.000069291      7.273127211      2.607838919 3 # 20
     5.154843448     10.935475545      2.615830938 3 # 21
     2.579380634     10.935451604      2.615776888 3 # 22
     2.574613221      7.284616599      2.614586887 3 # 23
     5.159622745      7.284166653      2.614453193 3 # 24
     0.000108446      3.651081370      2.607685834 3 # 25
     2.577575279      3.656031110      2.613807075 3 # 26
     5.156371577      3.655775286      2.613657105 3 # 27
     3.867187933      9.104205358      3.771889620 3 # 28
     1.310949529      5.413313857      3.920671101 3 # 29
    -1.311374092      5.410081730      3.921275017 3 # 30
     3.867116835      1.838994949      3.772701191 3 # 31
     3.866961964      5.478860886      3.780616635 3 # 32
    -1.287538113      1.828997029      3.773933710 3 # 33
     1.287547251      1.828959173      3.773910152 3 # 34
     1.286295852      9.112451040      3.775399516 3 # 35
    -1.286204073      9.112161594      3.775345104 3 # 36
    -0.000692470      5.988057826      5.244221474 2 # 37
    -0.002261570      7.016032765      5.078546879 1 # 38
%endblock AtomicCoordinatesAndAtomicSpecies
