NumberOfAtoms 34
NumberOfSpecies 1
LatticeConstant 1.0 Ang
%block LatticeVectors
    22.100000000      0.000000000      0.000000000 
     0.000000000      6.500000000      0.000000000 
     0.000000000      0.000000000      6.500000000 
%endblock LatticeVectors
AtomicCoordinatesFormat  Ang
%block AtomicCoordinatesAndAtomicSpecies
     0.000000000      0.000000000      0.000000000 1
     1.300000000      0.000000000      0.000000000 1
     2.600000000      0.000000000      0.000000000 1
     3.900000000      0.000000000      0.000000000 1
     5.200000000      0.000000000      0.000000000 1
     6.500000000      0.000000000      0.000000000 1
     7.800000000      0.000000000      0.000000000 1
     9.100000000      0.000000000      0.000000000 1
    10.400000000      0.000000000      0.000000000 1
    11.700000000      0.000000000      0.000000000 1
    13.000000000      0.000000000      0.000000000 1
    14.300000000      0.000000000      0.000000000 1
    15.600000000      0.000000000      0.000000000 1
    16.900000000      0.000000000      0.000000000 1
    18.200000000      0.000000000      0.000000000 1
    19.500000000      0.000000000      0.000000000 1
    20.800000000      0.000000000      0.000000000 1
     0.000000000      0.000000000      0.020000000 1
     1.300000000      0.000000000      0.020000000 1
     2.600000000      0.000000000      0.020000000 1
     3.900000000      0.000000000      0.020000000 1
     5.200000000      0.000000000      0.020000000 1
     6.500000000      0.000000000      0.020000000 1
     7.800000000      0.000000000      0.020000000 1
     9.100000000      0.000000000      0.020000000 1
    10.400000000      0.000000000      0.020000000 1
    11.700000000      0.000000000      0.020000000 1
    13.000000000      0.000000000      0.020000000 1
    14.300000000      0.000000000      0.020000000 1
    15.600000000      0.000000000      0.020000000 1
    16.900000000      0.000000000      0.020000000 1
    18.200000000      0.000000000      0.020000000 1
    19.500000000      0.000000000      0.020000000 1
    20.800000000      0.000000000      0.020000000 1
%endblock AtomicCoordinatesAndAtomicSpecies
