NumberOfAtoms 24
NumberOfSpecies 2
LatticeConstant 1.0 Ang
%block LatticeVectors
     9.000000000      0.000000000      0.000000000 
     0.000000000      9.000000000      0.000000000 
     0.000000000      0.000000000     57.940000000 
%endblock LatticeVectors
AtomicCoordinatesFormat  Ang
%block AtomicCoordinatesAndAtomicSpecies
     0.000000000      0.000000000      0.000000000 1 # 1
     0.000000000      0.000000000      2.540000000 1 # 2
     0.000000000      0.000000000      5.080000000 1 # 3
     0.000000000      0.000000000      7.620000000 1 # 4
     0.000000000      0.000000000     10.160000000 1 # 5
     0.000000000      0.000000000     12.700000000 1 # 6
     0.000000000      0.000000000     15.240000000 1 # 7
     0.000000000      0.000000000     17.780000000 1 # 8
     0.000000000      0.000000000     20.320000000 1 # 9
     0.000000000      0.000000000     22.860000000 1 # 10
    -0.000001103     -0.000000081     25.464986343 1 # 11
    -0.000000033     -0.000000067     27.216819937 2 # 12
     0.000000074      0.000000084     28.187049315 2 # 13
    -0.000000393     -0.000000312     29.935850292 1 # 14
     0.000000000      0.000000000     32.540000000 1 # 15
     0.000000000      0.000000000     35.080000001 1 # 16
     0.000000000      0.000000000     37.620000000 1 # 17
     0.000000000      0.000000000     40.160000000 1 # 18
     0.000000000      0.000000000     42.700000000 1 # 19
     0.000000000      0.000000000     45.240000000 1 # 20
     0.000000000      0.000000000     47.780000000 1 # 21
     0.000000000      0.000000000     50.320000000 1 # 22
     0.000000000      0.000000000     52.860000000 1 # 23
     0.000000000      0.000000000     55.400000000 1 # 24
%endblock AtomicCoordinatesAndAtomicSpecies
