NumberOfAtoms 4
NumberOfSpecies 2
LatticeConstant 1.0 Ang
%block LatticeVectors
    10.000000000      0.000000000      0.000000000 
     0.000000000     10.000000000      0.000000000 
     0.000000000      0.000000000     10.000000000 
%endblock LatticeVectors
AtomicCoordinatesFormat  Ang
%block AtomicCoordinatesAndAtomicSpecies
     5.000000000      5.000000000      4.596120000 2 # 1
     5.951980000      5.000000000      5.000000000 1 # 2
     4.524010000      5.823980000      5.000000000 1 # 3
     4.524010000      4.176020000      5.000000000 1 # 4
%endblock AtomicCoordinatesAndAtomicSpecies
