MD.TypeOfRun  FC
MD.FCfirst    1
MD.FClast     1
TS.SaveHS    True
MD.FCDispl   0.02 Ang

SystemName          NaCl
SystemLabel         NaCl

SpinPolarized       F

%block kgrid_Monkhorst_Pack
  1 0 0   0.0
  0 1 0   0.0
  0 0 1   0.0
%endblock kgrid_Monkhorst_Pack

%block ChemicalSpeciesLabel
 1 11   Na
 2 17   Cl
%endblock ChemicalSpeciesLabel

WriteCoorStep              T     # Default value
WriteCoorInitial           T     # Default value

%include STRUCT.fdf
%include Default.fdf
