NumberOfAtoms 864
NumberOfSpecies 2
LatticeConstant 1.0 Ang
%block LatticeVectors
     0.000000000     16.920000000     16.920000000 
    16.920000000      0.000000000     16.920000000 
    16.920000000     16.920000000      0.000000000 
%endblock LatticeVectors
AtomicCoordinatesFormat  Ang
%block AtomicCoordinatesAndAtomicSpecies
     0.000000000      0.000000000      0.000000000 1
     0.000000000      0.000000000      2.820000000 2
     2.820000000      2.820000000      0.000000000 1
     2.820000000      2.820000000      2.820000000 2
     5.640000000      5.640000000      0.000000000 1
     5.640000000      5.640000000      2.820000000 2
     8.460000000      8.460000000      0.000000000 1
     8.460000000      8.460000000      2.820000000 2
    11.280000000     11.280000000      0.000000000 1
    11.280000000     11.280000000      2.820000000 2
    14.100000000     14.100000000      0.000000000 1
    14.100000000     14.100000000      2.820000000 2
     2.820000000      0.000000000      2.820000000 1
     2.820000000      0.000000000      5.640000000 2
     5.640000000      2.820000000      2.820000000 1
     5.640000000      2.820000000      5.640000000 2
     8.460000000      5.640000000      2.820000000 1
     8.460000000      5.640000000      5.640000000 2
    11.280000000      8.460000000      2.820000000 1
    11.280000000      8.460000000      5.640000000 2
    14.100000000     11.280000000      2.820000000 1
    14.100000000     11.280000000      5.640000000 2
    16.920000000     14.100000000      2.820000000 1
    16.920000000     14.100000000      5.640000000 2
     5.640000000      0.000000000      5.640000000 1
     5.640000000      0.000000000      8.460000000 2
     8.460000000      2.820000000      5.640000000 1
     8.460000000      2.820000000      8.460000000 2
    11.280000000      5.640000000      5.640000000 1
    11.280000000      5.640000000      8.460000000 2
    14.100000000      8.460000000      5.640000000 1
    14.100000000      8.460000000      8.460000000 2
    16.920000000     11.280000000      5.640000000 1
    16.920000000     11.280000000      8.460000000 2
    19.740000000     14.100000000      5.640000000 1
    19.740000000     14.100000000      8.460000000 2
     8.460000000      0.000000000      8.460000000 1
     8.460000000      0.000000000     11.280000000 2
    11.280000000      2.820000000      8.460000000 1
    11.280000000      2.820000000     11.280000000 2
    14.100000000      5.640000000      8.460000000 1
    14.100000000      5.640000000     11.280000000 2
    16.920000000      8.460000000      8.460000000 1
    16.920000000      8.460000000     11.280000000 2
    19.740000000     11.280000000      8.460000000 1
    19.740000000     11.280000000     11.280000000 2
    22.560000000     14.100000000      8.460000000 1
    22.560000000     14.100000000     11.280000000 2
    11.280000000      0.000000000     11.280000000 1
    11.280000000      0.000000000     14.100000000 2
    14.100000000      2.820000000     11.280000000 1
    14.100000000      2.820000000     14.100000000 2
    16.920000000      5.640000000     11.280000000 1
    16.920000000      5.640000000     14.100000000 2
    19.740000000      8.460000000     11.280000000 1
    19.740000000      8.460000000     14.100000000 2
    22.560000000     11.280000000     11.280000000 1
    22.560000000     11.280000000     14.100000000 2
    25.380000000     14.100000000     11.280000000 1
    25.380000000     14.100000000     14.100000000 2
    14.100000000      0.000000000     14.100000000 1
    14.100000000      0.000000000     16.920000000 2
    16.920000000      2.820000000     14.100000000 1
    16.920000000      2.820000000     16.920000000 2
    19.740000000      5.640000000     14.100000000 1
    19.740000000      5.640000000     16.920000000 2
    22.560000000      8.460000000     14.100000000 1
    22.560000000      8.460000000     16.920000000 2
    25.380000000     11.280000000     14.100000000 1
    25.380000000     11.280000000     16.920000000 2
    28.200000000     14.100000000     14.100000000 1
    28.200000000     14.100000000     16.920000000 2
     0.000000000      2.820000000      2.820000000 1
     0.000000000      2.820000000      5.640000000 2
     2.820000000      5.640000000      2.820000000 1
     2.820000000      5.640000000      5.640000000 2
     5.640000000      8.460000000      2.820000000 1
     5.640000000      8.460000000      5.640000000 2
     8.460000000     11.280000000      2.820000000 1
     8.460000000     11.280000000      5.640000000 2
    11.280000000     14.100000000      2.820000000 1
    11.280000000     14.100000000      5.640000000 2
    14.100000000     16.920000000      2.820000000 1
    14.100000000     16.920000000      5.640000000 2
     2.820000000      2.820000000      5.640000000 1
     2.820000000      2.820000000      8.460000000 2
     5.640000000      5.640000000      5.640000000 1
     5.640000000      5.640000000      8.460000000 2
     8.460000000      8.460000000      5.640000000 1
     8.460000000      8.460000000      8.460000000 2
    11.280000000     11.280000000      5.640000000 1
    11.280000000     11.280000000      8.460000000 2
    14.100000000     14.100000000      5.640000000 1
    14.100000000     14.100000000      8.460000000 2
    16.920000000     16.920000000      5.640000000 1
    16.920000000     16.920000000      8.460000000 2
     5.640000000      2.820000000      8.460000000 1
     5.640000000      2.820000000     11.280000000 2
     8.460000000      5.640000000      8.460000000 1
     8.460000000      5.640000000     11.280000000 2
    11.280000000      8.460000000      8.460000000 1
    11.280000000      8.460000000     11.280000000 2
    14.100000000     11.280000000      8.460000000 1
    14.100000000     11.280000000     11.280000000 2
    16.920000000     14.100000000      8.460000000 1
    16.920000000     14.100000000     11.280000000 2
    19.740000000     16.920000000      8.460000000 1
    19.740000000     16.920000000     11.280000000 2
     8.460000000      2.820000000     11.280000000 1
     8.460000000      2.820000000     14.100000000 2
    11.280000000      5.640000000     11.280000000 1
    11.280000000      5.640000000     14.100000000 2
    14.100000000      8.460000000     11.280000000 1
    14.100000000      8.460000000     14.100000000 2
    16.920000000     11.280000000     11.280000000 1
    16.920000000     11.280000000     14.100000000 2
    19.740000000     14.100000000     11.280000000 1
    19.740000000     14.100000000     14.100000000 2
    22.560000000     16.920000000     11.280000000 1
    22.560000000     16.920000000     14.100000000 2
    11.280000000      2.820000000     14.100000000 1
    11.280000000      2.820000000     16.920000000 2
    14.100000000      5.640000000     14.100000000 1
    14.100000000      5.640000000     16.920000000 2
    16.920000000      8.460000000     14.100000000 1
    16.920000000      8.460000000     16.920000000 2
    19.740000000     11.280000000     14.100000000 1
    19.740000000     11.280000000     16.920000000 2
    22.560000000     14.100000000     14.100000000 1
    22.560000000     14.100000000     16.920000000 2
    25.380000000     16.920000000     14.100000000 1
    25.380000000     16.920000000     16.920000000 2
    14.100000000      2.820000000     16.920000000 1
    14.100000000      2.820000000     19.740000000 2
    16.920000000      5.640000000     16.920000000 1
    16.920000000      5.640000000     19.740000000 2
    19.740000000      8.460000000     16.920000000 1
    19.740000000      8.460000000     19.740000000 2
    22.560000000     11.280000000     16.920000000 1
    22.560000000     11.280000000     19.740000000 2
    25.380000000     14.100000000     16.920000000 1
    25.380000000     14.100000000     19.740000000 2
    28.200000000     16.920000000     16.920000000 1
    28.200000000     16.920000000     19.740000000 2
     0.000000000      5.640000000      5.640000000 1
     0.000000000      5.640000000      8.460000000 2
     2.820000000      8.460000000      5.640000000 1
     2.820000000      8.460000000      8.460000000 2
     5.640000000     11.280000000      5.640000000 1
     5.640000000     11.280000000      8.460000000 2
     8.460000000     14.100000000      5.640000000 1
     8.460000000     14.100000000      8.460000000 2
    11.280000000     16.920000000      5.640000000 1
    11.280000000     16.920000000      8.460000000 2
    14.100000000     19.740000000      5.640000000 1
    14.100000000     19.740000000      8.460000000 2
     2.820000000      5.640000000      8.460000000 1
     2.820000000      5.640000000     11.280000000 2
     5.640000000      8.460000000      8.460000000 1
     5.640000000      8.460000000     11.280000000 2
     8.460000000     11.280000000      8.460000000 1
     8.460000000     11.280000000     11.280000000 2
    11.280000000     14.100000000      8.460000000 1
    11.280000000     14.100000000     11.280000000 2
    14.100000000     16.920000000      8.460000000 1
    14.100000000     16.920000000     11.280000000 2
    16.920000000     19.740000000      8.460000000 1
    16.920000000     19.740000000     11.280000000 2
     5.640000000      5.640000000     11.280000000 1
     5.640000000      5.640000000     14.100000000 2
     8.460000000      8.460000000     11.280000000 1
     8.460000000      8.460000000     14.100000000 2
    11.280000000     11.280000000     11.280000000 1
    11.280000000     11.280000000     14.100000000 2
    14.100000000     14.100000000     11.280000000 1
    14.100000000     14.100000000     14.100000000 2
    16.920000000     16.920000000     11.280000000 1
    16.920000000     16.920000000     14.100000000 2
    19.740000000     19.740000000     11.280000000 1
    19.740000000     19.740000000     14.100000000 2
     8.460000000      5.640000000     14.100000000 1
     8.460000000      5.640000000     16.920000000 2
    11.280000000      8.460000000     14.100000000 1
    11.280000000      8.460000000     16.920000000 2
    14.100000000     11.280000000     14.100000000 1
    14.100000000     11.280000000     16.920000000 2
    16.920000000     14.100000000     14.100000000 1
    16.920000000     14.100000000     16.920000000 2
    19.740000000     16.920000000     14.100000000 1
    19.740000000     16.920000000     16.920000000 2
    22.560000000     19.740000000     14.100000000 1
    22.560000000     19.740000000     16.920000000 2
    11.280000000      5.640000000     16.920000000 1
    11.280000000      5.640000000     19.740000000 2
    14.100000000      8.460000000     16.920000000 1
    14.100000000      8.460000000     19.740000000 2
    16.920000000     11.280000000     16.920000000 1
    16.920000000     11.280000000     19.740000000 2
    19.740000000     14.100000000     16.920000000 1
    19.740000000     14.100000000     19.740000000 2
    22.560000000     16.920000000     16.920000000 1
    22.560000000     16.920000000     19.740000000 2
    25.380000000     19.740000000     16.920000000 1
    25.380000000     19.740000000     19.740000000 2
    14.100000000      5.640000000     19.740000000 1
    14.100000000      5.640000000     22.560000000 2
    16.920000000      8.460000000     19.740000000 1
    16.920000000      8.460000000     22.560000000 2
    19.740000000     11.280000000     19.740000000 1
    19.740000000     11.280000000     22.560000000 2
    22.560000000     14.100000000     19.740000000 1
    22.560000000     14.100000000     22.560000000 2
    25.380000000     16.920000000     19.740000000 1
    25.380000000     16.920000000     22.560000000 2
    28.200000000     19.740000000     19.740000000 1
    28.200000000     19.740000000     22.560000000 2
     0.000000000      8.460000000      8.460000000 1
     0.000000000      8.460000000     11.280000000 2
     2.820000000     11.280000000      8.460000000 1
     2.820000000     11.280000000     11.280000000 2
     5.640000000     14.100000000      8.460000000 1
     5.640000000     14.100000000     11.280000000 2
     8.460000000     16.920000000      8.460000000 1
     8.460000000     16.920000000     11.280000000 2
    11.280000000     19.740000000      8.460000000 1
    11.280000000     19.740000000     11.280000000 2
    14.100000000     22.560000000      8.460000000 1
    14.100000000     22.560000000     11.280000000 2
     2.820000000      8.460000000     11.280000000 1
     2.820000000      8.460000000     14.100000000 2
     5.640000000     11.280000000     11.280000000 1
     5.640000000     11.280000000     14.100000000 2
     8.460000000     14.100000000     11.280000000 1
     8.460000000     14.100000000     14.100000000 2
    11.280000000     16.920000000     11.280000000 1
    11.280000000     16.920000000     14.100000000 2
    14.100000000     19.740000000     11.280000000 1
    14.100000000     19.740000000     14.100000000 2
    16.920000000     22.560000000     11.280000000 1
    16.920000000     22.560000000     14.100000000 2
     5.640000000      8.460000000     14.100000000 1
     5.640000000      8.460000000     16.920000000 2
     8.460000000     11.280000000     14.100000000 1
     8.460000000     11.280000000     16.920000000 2
    11.280000000     14.100000000     14.100000000 1
    11.280000000     14.100000000     16.920000000 2
    14.100000000     16.920000000     14.100000000 1
    14.100000000     16.920000000     16.920000000 2
    16.920000000     19.740000000     14.100000000 1
    16.920000000     19.740000000     16.920000000 2
    19.740000000     22.560000000     14.100000000 1
    19.740000000     22.560000000     16.920000000 2
     8.460000000      8.460000000     16.920000000 1
     8.460000000      8.460000000     19.740000000 2
    11.280000000     11.280000000     16.920000000 1
    11.280000000     11.280000000     19.740000000 2
    14.100000000     14.100000000     16.920000000 1
    14.100000000     14.100000000     19.740000000 2
    16.920000000     16.920000000     16.920000000 1
    16.920000000     16.920000000     19.740000000 2
    19.740000000     19.740000000     16.920000000 1
    19.740000000     19.740000000     19.740000000 2
    22.560000000     22.560000000     16.920000000 1
    22.560000000     22.560000000     19.740000000 2
    11.280000000      8.460000000     19.740000000 1
    11.280000000      8.460000000     22.560000000 2
    14.100000000     11.280000000     19.740000000 1
    14.100000000     11.280000000     22.560000000 2
    16.920000000     14.100000000     19.740000000 1
    16.920000000     14.100000000     22.560000000 2
    19.740000000     16.920000000     19.740000000 1
    19.740000000     16.920000000     22.560000000 2
    22.560000000     19.740000000     19.740000000 1
    22.560000000     19.740000000     22.560000000 2
    25.380000000     22.560000000     19.740000000 1
    25.380000000     22.560000000     22.560000000 2
    14.100000000      8.460000000     22.560000000 1
    14.100000000      8.460000000     25.380000000 2
    16.920000000     11.280000000     22.560000000 1
    16.920000000     11.280000000     25.380000000 2
    19.740000000     14.100000000     22.560000000 1
    19.740000000     14.100000000     25.380000000 2
    22.560000000     16.920000000     22.560000000 1
    22.560000000     16.920000000     25.380000000 2
    25.380000000     19.740000000     22.560000000 1
    25.380000000     19.740000000     25.380000000 2
    28.200000000     22.560000000     22.560000000 1
    28.200000000     22.560000000     25.380000000 2
     0.000000000     11.280000000     11.280000000 1
     0.000000000     11.280000000     14.100000000 2
     2.820000000     14.100000000     11.280000000 1
     2.820000000     14.100000000     14.100000000 2
     5.640000000     16.920000000     11.280000000 1
     5.640000000     16.920000000     14.100000000 2
     8.460000000     19.740000000     11.280000000 1
     8.460000000     19.740000000     14.100000000 2
    11.280000000     22.560000000     11.280000000 1
    11.280000000     22.560000000     14.100000000 2
    14.100000000     25.380000000     11.280000000 1
    14.100000000     25.380000000     14.100000000 2
     2.820000000     11.280000000     14.100000000 1
     2.820000000     11.280000000     16.920000000 2
     5.640000000     14.100000000     14.100000000 1
     5.640000000     14.100000000     16.920000000 2
     8.460000000     16.920000000     14.100000000 1
     8.460000000     16.920000000     16.920000000 2
    11.280000000     19.740000000     14.100000000 1
    11.280000000     19.740000000     16.920000000 2
    14.100000000     22.560000000     14.100000000 1
    14.100000000     22.560000000     16.920000000 2
    16.920000000     25.380000000     14.100000000 1
    16.920000000     25.380000000     16.920000000 2
     5.640000000     11.280000000     16.920000000 1
     5.640000000     11.280000000     19.740000000 2
     8.460000000     14.100000000     16.920000000 1
     8.460000000     14.100000000     19.740000000 2
    11.280000000     16.920000000     16.920000000 1
    11.280000000     16.920000000     19.740000000 2
    14.100000000     19.740000000     16.920000000 1
    14.100000000     19.740000000     19.740000000 2
    16.920000000     22.560000000     16.920000000 1
    16.920000000     22.560000000     19.740000000 2
    19.740000000     25.380000000     16.920000000 1
    19.740000000     25.380000000     19.740000000 2
     8.460000000     11.280000000     19.740000000 1
     8.460000000     11.280000000     22.560000000 2
    11.280000000     14.100000000     19.740000000 1
    11.280000000     14.100000000     22.560000000 2
    14.100000000     16.920000000     19.740000000 1
    14.100000000     16.920000000     22.560000000 2
    16.920000000     19.740000000     19.740000000 1
    16.920000000     19.740000000     22.560000000 2
    19.740000000     22.560000000     19.740000000 1
    19.740000000     22.560000000     22.560000000 2
    22.560000000     25.380000000     19.740000000 1
    22.560000000     25.380000000     22.560000000 2
    11.280000000     11.280000000     22.560000000 1
    11.280000000     11.280000000     25.380000000 2
    14.100000000     14.100000000     22.560000000 1
    14.100000000     14.100000000     25.380000000 2
    16.920000000     16.920000000     22.560000000 1
    16.920000000     16.920000000     25.380000000 2
    19.740000000     19.740000000     22.560000000 1
    19.740000000     19.740000000     25.380000000 2
    22.560000000     22.560000000     22.560000000 1
    22.560000000     22.560000000     25.380000000 2
    25.380000000     25.380000000     22.560000000 1
    25.380000000     25.380000000     25.380000000 2
    14.100000000     11.280000000     25.380000000 1
    14.100000000     11.280000000     28.200000000 2
    16.920000000     14.100000000     25.380000000 1
    16.920000000     14.100000000     28.200000000 2
    19.740000000     16.920000000     25.380000000 1
    19.740000000     16.920000000     28.200000000 2
    22.560000000     19.740000000     25.380000000 1
    22.560000000     19.740000000     28.200000000 2
    25.380000000     22.560000000     25.380000000 1
    25.380000000     22.560000000     28.200000000 2
    28.200000000     25.380000000     25.380000000 1
    28.200000000     25.380000000     28.200000000 2
     0.000000000     14.100000000     14.100000000 1
     0.000000000     14.100000000     16.920000000 2
     2.820000000     16.920000000     14.100000000 1
     2.820000000     16.920000000     16.920000000 2
     5.640000000     19.740000000     14.100000000 1
     5.640000000     19.740000000     16.920000000 2
     8.460000000     22.560000000     14.100000000 1
     8.460000000     22.560000000     16.920000000 2
    11.280000000     25.380000000     14.100000000 1
    11.280000000     25.380000000     16.920000000 2
    14.100000000     28.200000000     14.100000000 1
    14.100000000     28.200000000     16.920000000 2
     2.820000000     14.100000000     16.920000000 1
     2.820000000     14.100000000     19.740000000 2
     5.640000000     16.920000000     16.920000000 1
     5.640000000     16.920000000     19.740000000 2
     8.460000000     19.740000000     16.920000000 1
     8.460000000     19.740000000     19.740000000 2
    11.280000000     22.560000000     16.920000000 1
    11.280000000     22.560000000     19.740000000 2
    14.100000000     25.380000000     16.920000000 1
    14.100000000     25.380000000     19.740000000 2
    16.920000000     28.200000000     16.920000000 1
    16.920000000     28.200000000     19.740000000 2
     5.640000000     14.100000000     19.740000000 1
     5.640000000     14.100000000     22.560000000 2
     8.460000000     16.920000000     19.740000000 1
     8.460000000     16.920000000     22.560000000 2
    11.280000000     19.740000000     19.740000000 1
    11.280000000     19.740000000     22.560000000 2
    14.100000000     22.560000000     19.740000000 1
    14.100000000     22.560000000     22.560000000 2
    16.920000000     25.380000000     19.740000000 1
    16.920000000     25.380000000     22.560000000 2
    19.740000000     28.200000000     19.740000000 1
    19.740000000     28.200000000     22.560000000 2
     8.460000000     14.100000000     22.560000000 1
     8.460000000     14.100000000     25.380000000 2
    11.280000000     16.920000000     22.560000000 1
    11.280000000     16.920000000     25.380000000 2
    14.100000000     19.740000000     22.560000000 1
    14.100000000     19.740000000     25.380000000 2
    16.920000000     22.560000000     22.560000000 1
    16.920000000     22.560000000     25.380000000 2
    19.740000000     25.380000000     22.560000000 1
    19.740000000     25.380000000     25.380000000 2
    22.560000000     28.200000000     22.560000000 1
    22.560000000     28.200000000     25.380000000 2
    11.280000000     14.100000000     25.380000000 1
    11.280000000     14.100000000     28.200000000 2
    14.100000000     16.920000000     25.380000000 1
    14.100000000     16.920000000     28.200000000 2
    16.920000000     19.740000000     25.380000000 1
    16.920000000     19.740000000     28.200000000 2
    19.740000000     22.560000000     25.380000000 1
    19.740000000     22.560000000     28.200000000 2
    22.560000000     25.380000000     25.380000000 1
    22.560000000     25.380000000     28.200000000 2
    25.380000000     28.200000000     25.380000000 1
    25.380000000     28.200000000     28.200000000 2
    14.100000000     14.100000000     28.200000000 1
    14.100000000     14.100000000     31.020000000 2
    16.920000000     16.920000000     28.200000000 1
    16.920000000     16.920000000     31.020000000 2
    19.740000000     19.740000000     28.200000000 1
    19.740000000     19.740000000     31.020000000 2
    22.560000000     22.560000000     28.200000000 1
    22.560000000     22.560000000     31.020000000 2
    25.380000000     25.380000000     28.200000000 1
    25.380000000     25.380000000     31.020000000 2
    28.200000000     28.200000000     28.200000000 1
    28.200000000     28.200000000     31.020000000 2
     0.020000000      0.000000000      0.000000000 1
     0.020000000      0.000000000      2.820000000 2
     2.840000000      2.820000000      0.000000000 1
     2.840000000      2.820000000      2.820000000 2
     5.660000000      5.640000000      0.000000000 1
     5.660000000      5.640000000      2.820000000 2
     8.480000000      8.460000000      0.000000000 1
     8.480000000      8.460000000      2.820000000 2
    11.300000000     11.280000000      0.000000000 1
    11.300000000     11.280000000      2.820000000 2
    14.120000000     14.100000000      0.000000000 1
    14.120000000     14.100000000      2.820000000 2
     2.840000000      0.000000000      2.820000000 1
     2.840000000      0.000000000      5.640000000 2
     5.660000000      2.820000000      2.820000000 1
     5.660000000      2.820000000      5.640000000 2
     8.480000000      5.640000000      2.820000000 1
     8.480000000      5.640000000      5.640000000 2
    11.300000000      8.460000000      2.820000000 1
    11.300000000      8.460000000      5.640000000 2
    14.120000000     11.280000000      2.820000000 1
    14.120000000     11.280000000      5.640000000 2
    16.940000000     14.100000000      2.820000000 1
    16.940000000     14.100000000      5.640000000 2
     5.660000000      0.000000000      5.640000000 1
     5.660000000      0.000000000      8.460000000 2
     8.480000000      2.820000000      5.640000000 1
     8.480000000      2.820000000      8.460000000 2
    11.300000000      5.640000000      5.640000000 1
    11.300000000      5.640000000      8.460000000 2
    14.120000000      8.460000000      5.640000000 1
    14.120000000      8.460000000      8.460000000 2
    16.940000000     11.280000000      5.640000000 1
    16.940000000     11.280000000      8.460000000 2
    19.760000000     14.100000000      5.640000000 1
    19.760000000     14.100000000      8.460000000 2
     8.480000000      0.000000000      8.460000000 1
     8.480000000      0.000000000     11.280000000 2
    11.300000000      2.820000000      8.460000000 1
    11.300000000      2.820000000     11.280000000 2
    14.120000000      5.640000000      8.460000000 1
    14.120000000      5.640000000     11.280000000 2
    16.940000000      8.460000000      8.460000000 1
    16.940000000      8.460000000     11.280000000 2
    19.760000000     11.280000000      8.460000000 1
    19.760000000     11.280000000     11.280000000 2
    22.580000000     14.100000000      8.460000000 1
    22.580000000     14.100000000     11.280000000 2
    11.300000000      0.000000000     11.280000000 1
    11.300000000      0.000000000     14.100000000 2
    14.120000000      2.820000000     11.280000000 1
    14.120000000      2.820000000     14.100000000 2
    16.940000000      5.640000000     11.280000000 1
    16.940000000      5.640000000     14.100000000 2
    19.760000000      8.460000000     11.280000000 1
    19.760000000      8.460000000     14.100000000 2
    22.580000000     11.280000000     11.280000000 1
    22.580000000     11.280000000     14.100000000 2
    25.400000000     14.100000000     11.280000000 1
    25.400000000     14.100000000     14.100000000 2
    14.120000000      0.000000000     14.100000000 1
    14.120000000      0.000000000     16.920000000 2
    16.940000000      2.820000000     14.100000000 1
    16.940000000      2.820000000     16.920000000 2
    19.760000000      5.640000000     14.100000000 1
    19.760000000      5.640000000     16.920000000 2
    22.580000000      8.460000000     14.100000000 1
    22.580000000      8.460000000     16.920000000 2
    25.400000000     11.280000000     14.100000000 1
    25.400000000     11.280000000     16.920000000 2
    28.220000000     14.100000000     14.100000000 1
    28.220000000     14.100000000     16.920000000 2
     0.020000000      2.820000000      2.820000000 1
     0.020000000      2.820000000      5.640000000 2
     2.840000000      5.640000000      2.820000000 1
     2.840000000      5.640000000      5.640000000 2
     5.660000000      8.460000000      2.820000000 1
     5.660000000      8.460000000      5.640000000 2
     8.480000000     11.280000000      2.820000000 1
     8.480000000     11.280000000      5.640000000 2
    11.300000000     14.100000000      2.820000000 1
    11.300000000     14.100000000      5.640000000 2
    14.120000000     16.920000000      2.820000000 1
    14.120000000     16.920000000      5.640000000 2
     2.840000000      2.820000000      5.640000000 1
     2.840000000      2.820000000      8.460000000 2
     5.660000000      5.640000000      5.640000000 1
     5.660000000      5.640000000      8.460000000 2
     8.480000000      8.460000000      5.640000000 1
     8.480000000      8.460000000      8.460000000 2
    11.300000000     11.280000000      5.640000000 1
    11.300000000     11.280000000      8.460000000 2
    14.120000000     14.100000000      5.640000000 1
    14.120000000     14.100000000      8.460000000 2
    16.940000000     16.920000000      5.640000000 1
    16.940000000     16.920000000      8.460000000 2
     5.660000000      2.820000000      8.460000000 1
     5.660000000      2.820000000     11.280000000 2
     8.480000000      5.640000000      8.460000000 1
     8.480000000      5.640000000     11.280000000 2
    11.300000000      8.460000000      8.460000000 1
    11.300000000      8.460000000     11.280000000 2
    14.120000000     11.280000000      8.460000000 1
    14.120000000     11.280000000     11.280000000 2
    16.940000000     14.100000000      8.460000000 1
    16.940000000     14.100000000     11.280000000 2
    19.760000000     16.920000000      8.460000000 1
    19.760000000     16.920000000     11.280000000 2
     8.480000000      2.820000000     11.280000000 1
     8.480000000      2.820000000     14.100000000 2
    11.300000000      5.640000000     11.280000000 1
    11.300000000      5.640000000     14.100000000 2
    14.120000000      8.460000000     11.280000000 1
    14.120000000      8.460000000     14.100000000 2
    16.940000000     11.280000000     11.280000000 1
    16.940000000     11.280000000     14.100000000 2
    19.760000000     14.100000000     11.280000000 1
    19.760000000     14.100000000     14.100000000 2
    22.580000000     16.920000000     11.280000000 1
    22.580000000     16.920000000     14.100000000 2
    11.300000000      2.820000000     14.100000000 1
    11.300000000      2.820000000     16.920000000 2
    14.120000000      5.640000000     14.100000000 1
    14.120000000      5.640000000     16.920000000 2
    16.940000000      8.460000000     14.100000000 1
    16.940000000      8.460000000     16.920000000 2
    19.760000000     11.280000000     14.100000000 1