NumberOfAtoms 864
NumberOfSpecies 2
LatticeConstant 1.0 Ang
%block LatticeVectors
     0.000000000     16.920000000     16.920000000 
    16.920000000      0.000000000     16.920000000 
    16.920000000     16.920000000      0.000000000 
%endblock LatticeVectors
AtomicCoordinatesFormat  Ang
%block AtomicCoordinatesAndAtomicSpecies
     0.000000000      0.000000000      0.000000000 1
     0.000000000      0.000000000      2.820000000 2
     2.820000000      2.820000000      0.000000000 1
     2.820000000      2.820000000      2.820000000 2
     5.640000000      5.640000000      0.000000000 1
     5.640000000      5.640000000      2.820000000 2
     8.460000000      8.460000000      0.000000000 1
     8.460000000      8.460000000      2.820000000 2
    11.280000000     11.280000000      0.000000000 1
    11.280000000     11.280000000      2.820000000 2
    14.100000000     14.100000000      0.000000000 1
    14.100000000     14.100000000      2.820000000 2
     2.820000000      0.000000000      2.820000000 1
     2.820000000      0.000000000      5.640000000 2
     5.640000000      2.820000000      2.820000000 1
     5.640000000      2.820000000      5.640000000 2
     8.460000000      5.640000000      2.820000000 1
     8.460000000      5.640000000      5.640000000 2
    11.280000000      8.460000000      2.820000000 1
    11.280000000      8.460000000      5.640000000 2
    14.100000000     11.280000000      2.820000000 1
    14.100000000     11.280000000      5.640000000 2
    16.920000000     14.100000000      2.820000000 1
    16.920000000     14.100000000      5.640000000 2
     5.640000000      0.000000000      5.640000000 1
     5.640000000      0.000000000      8.460000000 2
     8.460000000      2.820000000      5.640000000 1
     8.460000000      2.820000000      8.460000000 2
    11.280000000      5.640000000      5.640000000 1
    11.280000000      5.640000000      8.460000000 2
    14.100000000      8.460000000      5.640000000 1
    14.100000000      8.460000000      8.460000000 2
    16.920000000     11.280000000      5.640000000 1
    16.920000000     11.280000000      8.460000000 2
    19.740000000     14.100000000      5.640000000 1
    19.740000000     14.100000000      8.460000000 2
     8.460000000      0.000000000      8.460000000 1
     8.460000000      0.000000000     11.280000000 2
    11.280000000      2.820000000      8.460000000 1
    11.280000000      2.820000000     11.280000000 2
    14.100000000      5.640000000      8.460000000 1
    14.100000000      5.640000000     11.280000000 2
    16.920000000      8.460000000      8.460000000 1
    16.920000000      8.460000000     11.280000000 2
    19.740000000     11.280000000      8.460000000 1
    19.740000000     11.280000000     11.280000000 2
    22.560000000     14.100000000      8.460000000 1
    22.560000000     14.100000000     11.280000000 2
    11.280000000      0.000000000     11.280000000 1
    11.280000000      0.000000000     14.100000000 2
    14.100000000      2.820000000     11.280000000 1
    14.100000000      2.820000000     14.100000000 2
    16.920000000      5.640000000     11.280000000 1
    16.920000000      5.640000000     14.100000000 2
    19.740000000      8.460000000     11.280000000 1
    19.740000000      8.460000000     14.100000000 2
    22.560000000     11.280000000     11.280000000 1
    22.560000000     11.280000000     14.100000000 2
    25.380000000     14.100000000     11.280000000 1
    25.380000000     14.100000000     14.100000000 2
    14.100000000      0.000000000     14.100000000 1
    14.100000000      0.000000000     16.920000000 2
    16.920000000      2.820000000     14.100000000 1
    16.920000000      2.820000000     16.920000000 2
    19.740000000      5.640000000     14.100000000 1
    19.740000000      5.640000000     16.920000000 2
    22.560000000      8.460000000     14.100000000 1
    22.560000000      8.460000000     16.920000000 2
    25.380000000     11.280000000     14.100000000 1
    25.380000000     11.280000000     16.920000000 2
    28.200000000     14.100000000     14.100000000 1
    28.200000000     14.100000000     16.920000000 2
     0.000000000      2.820000000      2.820000000 1
     0.000000000      2.820000000      5.640000000 2
     2.820000000      5.640000000      2.820000000 1
     2.820000000      5.640000000      5.640000000 2
     5.640000000      8.460000000      2.820000000 1
     5.640000000      8.460000000      5.640000000 2
     8.460000000     11.280000000      2.820000000 1
     8.460000000     11.280000000      5.640000000 2
    11.280000000     14.100000000      2.820000000 1
    11.280000000     14.100000000      5.640000000 2
    14.100000000     16.920000000      2.820000000 1
    14.100000000     16.920000000      5.640000000 2
     2.820000000      2.820000000      5.640000000 1
     2.820000000      2.820000000      8.460000000 2
     5.640000000      5.640000000      5.640000000 1
     5.640000000      5.640000000      8.460000000 2
     8.460000000      8.460000000      5.640000000 1
     8.460000000      8.460000000      8.460000000 2
    11.280000000     11.280000000      5.640000000 1
    11.280000000     11.280000000      8.460000000 2
    14.100000000     14.100000000      5.640000000 1
    14.100000000     14.100000000      8.460000000 2
    16.920000000     16.920000000      5.640000000 1
    16.920000000     16.920000000      8.460000000 2
     5.640000000      2.820000000      8.460000000 1
     5.640000000      2.820000000     11.280000000 2
     8.460000000      5.640000000      8.460000000 1
     8.460000000      5.640000000     11.280000000 2
    11.280000000      8.460000000      8.460000000 1
    11.280000000      8.460000000     11.280000000 2
    14.100000000     11.280000000      8.460000000 1
    14.100000000     11.280000000     11.280000000 2
    16.920000000     14.100000000      8.460000000 1
    16.920000000     14.100000000     11.280000000 2
    19.740000000     16.920000000      8.460000000 1
    19.740000000     16.920000000     11.280000000 2
     8.460000000      2.820000000     11.280000000 1
     8.460000000      2.820000000     14.100000000 2
    11.280000000      5.640000000     11.280000000 1
    11.280000000      5.640000000     14.100000000 2
    14.100000000      8.460000000     11.280000000 1
    14.100000000      8.460000000     14.100000000 2
    16.920000000     11.280000000     11.280000000 1
    16.920000000     11.280000000     14.100000000 2
    19.740000000     14.100000000     11.280000000 1
    19.740000000     14.100000000     14.100000000 2
    22.560000000     16.920000000     11.280000000 1
    22.560000000     16.920000000     14.100000000 2
    11.280000000      2.820000000     14.100000000 1
    11.280000000      2.820000000     16.920000000 2
    14.100000000      5.640000000     14.100000000 1
    14.100000000      5.640000000     16.920000000 2
    16.920000000      8.460000000     14.100000000 1
    16.920000000      8.460000000     16.920000000 2
    19.740000000     11.280000000     14.100000000 1
    19.740000000     11.280000000     16.920000000 2
    22.560000000     14.100000000     14.100000000 1
    22.560000000     14.100000000     16.920000000 2
    25.380000000     16.920000000     14.100000000 1
    25.380000000     16.920000000     16.920000000 2
    14.100000000      2.820000000     16.920000000 1
    14.100000000      2.820000000     19.740000000 2
    16.920000000      5.640000000     16.920000000 1
    16.920000000      5.640000000     19.740000000 2
    19.740000000      8.460000000     16.920000000 1
    19.740000000      8.460000000     19.740000000 2
    22.560000000     11.280000000     16.920000000 1
    22.560000000     11.280000000     19.740000000 2
    25.380000000     14.100000000     16.920000000 1
    25.380000000     14.100000000     19.740000000 2
    28.200000000     16.920000000     16.920000000 1
    28.200000000     16.920000000     19.740000000 2
     0.000000000      5.640000000      5.640000000 1
     0.000000000      5.640000000      8.460000000 2
     2.820000000      8.460000000      5.640000000 1
     2.820000000      8.460000000      8.460000000 2
     5.640000000     11.280000000      5.640000000 1
     5.640000000     11.280000000      8.460000000 2
     8.460000000     14.100000000      5.640000000 1
     8.460000000     14.100000000      8.460000000 2
    11.280000000     16.920000000      5.640000000 1
    11.280000000     16.920000000      8.460000000 2
    14.100000000     19.740000000      5.640000000 1
    14.100000000     19.740000000      8.460000000 2
     2.820000000      5.640000000      8.460000000 1
     2.820000000      5.640000000     11.280000000 2
     5.640000000      8.460000000      8.460000000 1
     5.640000000      8.460000000     11.280000000 2
     8.460000000     11.280000000      8.460000000 1
     8.460000000     11.280000000     11.280000000 2
    11.280000000     14.100000000      8.460000000 1
    11.280000000     14.100000000     11.280000000 2
    14.100000000     16.920000000      8.460000000 1
    14.100000000     16.920000000     11.280000000 2
    16.920000000     19.740000000      8.460000000 1
    16.920000000     19.740000000     11.280000000 2
     5.640000000      5.640000000     11.280000000 1
     5.640000000      5.640000000     14.100000000 2
     8.460000000      8.460000000     11.280000000 1
     8.460000000      8.460000000     14.100000000 2
    11.280000000     11.280000000     11.280000000 1
    11.280000000     11.280000000     14.100000000 2
    14.100000000     14.100000000     11.280000000 1
    14.100000000     14.100000000     14.100000000 2
    16.920000000     16.920000000     11.280000000 1
    16.920000000     16.920000000     14.100000000 2
    19.740000000     19.740000000     11.280000000 1
    19.740000000     19.740000000     14.100000000 2
     8.460000000      5.640000000     14.100000000 1
     8.460000000      5.640000000     16.920000000 2
    11.280000000      8.460000000     14.100000000 1
    11.280000000      8.460000000     16.920000000 2
    14.100000000     11.280000000     14.100000000 1
    14.100000000     11.280000000     16.920000000 2
    16.920000000     14.100000000     14.100000000 1
    16.920000000     14.100000000     16.920000000 2
    19.740000000     16.920000000     14.100000000 1
    19.740000000     16.920000000     16.920000000 2
    22.560000000     19.740000000     14.100000000 1
    22.560000000     19.740000000     16.920000000 2
    11.280000000      5.640000000     16.920000000 1
    11.280000000      5.640000000     19.740000000 2
    14.100000000      8.460000000     16.920000000 1
    14.100000000      8.460000000     19.740000000 2
    16.920000000     11.280000000     16.920000000 1
    16.920000000     11.280000000     19.740000000 2
    19.740000000     14.100000000     16.920000000 1
    19.740000000     14.100000000     19.740000000 2
    22.560000000     16.920000000     16.920000000 1
    22.560000000     16.920000000     19.740000000 2
    25.380000000     19.740000000     16.920000000 1
    25.380000000     19.740000000     19.740000000 2
    14.100000000      5.640000000     19.740000000 1
    14.100000000      5.640000000     22.560000000 2
    16.920000000      8.460000000     19.740000000 1
    16.920000000      8.460000000     22.560000000 2
    19.740000000     11.280000000     19.740000000 1
    19.740000000     11.280000000     22.560000000 2
    22.560000000     14.100000000     19.740000000 1
    22.560000000     14.100000000     22.560000000 2
    25.380000000     16.920000000     19.740000000 1
    25.380000000     16.920000000     22.560000000 2
    28.200000000     19.740000000     19.740000000 1
    28.200000000     19.740000000     22.560000000 2
     0.000000000      8.460000000      8.460000000 1
     0.000000000      8.460000000     11.280000000 2
     2.820000000     11.280000000      8.460000000 1
     2.820000000     11.280000000     11.280000000 2
     5.640000000     14.100000000      8.460000000 1
     5.640000000     14.100000000     11.280000000 2
     8.460000000     16.920000000      8.460000000 1
     8.460000000     16.920000000     11.280000000 2
    11.280000000     19.740000000      8.460000000 1
    11.280000000     19.740000000     11.280000000 2
    14.100000000     22.560000000      8.460000000 1
    14.100000000     22.560000000     11.280000000 2
     2.820000000      8.460000000     11.280000000 1
     2.820000000      8.460000000     14.100000000 2
     5.640000000     11.280000000     11.280000000 1
     5.640000000     11.280000000     14.100000000 2
     8.460000000     14.100000000     11.280000000 1
     8.460000000     14.100000000     14.100000000 2
    11.280000000     16.920000000     11.280000000 1
    11.280000000     16.920000000     14.100000000 2
    14.100000000     19.740000000     11.280000000 1
    14.100000000     19.740000000     14.100000000 2
    16.920000000     22.560000000     11.280000000 1
    16.920000000     22.560000000     14.100000000 2
     5.640000000      8.460000000     14.100000000 1
     5.640000000      8.460000000     16.920000000 2
     8.460000000     11.280000000     14.100000000 1
     8.460000000     11.280000000     16.920000000 2
    11.280000000     14.100000000     14.100000000 1
    11.280000000     14.100000000     16.920000000 2
    14.100000000     16.920000000     14.100000000 1
    14.100000000     16.920000000     16.920000000 2
    16.920000000     19.740000000     14.100000000 1
    16.920000000     19.740000000     16.920000000 2
    19.740000000     22.560000000     14.100000000 1
    19.740000000     22.560000000     16.920000000 2
     8.460000000      8.460000000     16.920000000 1
     8.460000000      8.460000000     19.740000000 2
    11.280000000     11.280000000     16.920000000 1
    11.280000000     11.280000000     19.740000000 2
    14.100000000     14.100000000     16.920000000 1
    14.100000000     14.100000000     19.740000000 2
    16.920000000     16.920000000     16.920000000 1
    16.920000000     16.920000000     19.740000000 2
    19.740000000     19.740000000     16.920000000 1
    19.740000000     19.740000000     19.740000000 2
    22.560000000     22.560000000     16.920000000 1
    22.560000000     22.560000000     19.740000000 2
    11.280000000      8.460000000     19.740000000 1
    11.280000000      8.460000000     22.560000000 2
    14.100000000     11.280000000     19.740000000 1
    14.100000000     11.280000000     22.560000000 2
    16.920000000     14.100000000     19.740000000 1
    16.920000000     14.100000000     22.560000000 2
    19.740000000     16.920000000     19.740000000 1
    19.740000000     16.920000000     22.560000000 2
    22.560000000     19.740000000     19.740000000 1
    22.560000000     19.740000000     22.560000000 2
    25.380000000     22.560000000     19.740000000 1
    25.380000000     22.560000000     22.560000000 2
    14.100000000      8.460000000     22.560000000 1
    14.100000000      8.460000000     25.380000000 2
    16.920000000     11.280000000     22.560000000 1
    16.920000000     11.280000000     25.380000000 2
    19.740000000     14.100000000     22.560000000 1
    19.740000000     14.100000000     25.380000000 2
    22.560000000     16.920000000     22.560000000 1
    22.560000000     16.920000000     25.380000000 2
    25.380000000     19.740000000     22.560000000 1
    25.380000000     19.740000000     25.380000000 2
    28.200000000     22.560000000     22.560000000 1
    28.200000000     22.560000000     25.380000000 2
     0.000000000     11.280000000     11.280000000 1
     0.000000000     11.280000000     14.100000000 2
     2.820000000     14.100000000     11.280000000 1
     2.820000000     14.100000000     14.100000000 2
     5.640000000     16.920000000     11.280000000 1
     5.640000000     16.920000000     14.100000000 2
     8.460000000     19.740000000     11.280000000 1
     8.460000000     19.740000000     14.100000000 2
    11.280000000     22.560000000     11.280000000 1
    11.280000000     22.560000000     14.100000000 2
    14.100000000     25.380000000     11.280000000 1
    14.100000000     25.380000000     14.100000000 2
     2.820000000     11.280000000     14.100000000 1
     2.820000000     11.280000000     16.920000000 2
     5.640000000     14.100000000     14.100000000 1
     5.640000000     14.100000000     16.920000000 2
     8.460000000     16.920000000     14.100000000 1
     8.460000000     16.920000000     16.920000000 2
    11.280000000     19.740000000     14.100000000 1
    11.280000000     19.740000000     16.920000000 2
    14.100000000     22.560000000     14.100000000 1
    14.100000000     22.560000000     16.920000000 2
    16.920000000     25.380000000     14.100000000 1
    16.920000000     25.380000000     16.920000000 2
     5.640000000     11.280000000     16.920000000 1
     5.640000000     11.280000000     19.740000000 2
     8.460000000     14.100000000     16.920000000 1
     8.460000000     14.100000000     19.740000000 2
    11.280000000     16.920000000     16.920000000 1
    11.280000000     16.920000000     19.740000000 2
    14.100000000     19.740000000     16.920000000 1
    14.100000000     19.740000000     19.740000000 2
    16.920000000     22.560000000     16.920000000 1
    16.920000000     22.560000000     19.740000000 2
    19.740000000     25.380000000     16.920000000 1
    19.740000000     25.380000000     19.740000000 2
     8.460000000     11.280000000     19.740000000 1
     8.460000000     11.280000000     22.560000000 2
    11.280000000     14.100000000     19.740000000 1
    11.280000000     14.100000000     22.560000000 2
    14.100000000     16.920000000     19.740000000 1
    14.100000000     16.920000000     22.560000000 2
    16.920000000     19.740000000     19.740000000 1
    16.920000000     19.740000000     22.560000000 2
    19.740000000     22.560000000     19.740000000 1
    19.740000000     22.560000000     22.560000000 2
    22.560000000     25.380000000     19.740000000 1
    22.560000000     25.380000000     22.560000000 2
    11.280000000     11.280000000     22.560000000 1
    11.280000000     11.280000000     25.380000000 2
    14.100000000     14.100000000     22.560000000 1
    14.100000000     14.100000000     25.380000000 2
    16.920000000     16.920000000     22.560000000 1
    16.920000000     16.920000000     25.380000000 2
    19.740000000     19.740000000     22.560000000 1
    19.740000000     19.740000000     25.380000000 2
    22.560000000     22.560000000     22.560000000 1
    22.560000000     22.560000000     25.380000000 2
    25.380000000     25.380000000     22.560000000 1
    25.380000000     25.380000000     25.380000000 2
    14.100000000     11.280000000     25.380000000 1
    14.100000000     11.280000000     28.200000000 2
    16.920000000     14.100000000     25.380000000 1
    16.920000000     14.100000000     28.200000000 2
    19.740000000     16.920000000     25.380000000 1
    19.740000000     16.920000000     28.200000000 2
    22.560000000     19.740000000     25.380000000 1
    22.560000000     19.740000000     28.200000000 2
    25.380000000     22.560000000     25.380000000 1
    25.380000000     22.560000000     28.200000000 2
    28.200000000     25.380000000     25.380000000 1
    28.200000000     25.380000000     28.200000000 2
     0.000000000     14.100000000     14.100000000 1
     0.000000000     14.100000000     16.920000000 2
     2.820000000     16.920000000     14.100000000 1
     2.820000000     16.920000000     16.920000000 2
     5.640000000     19.740000000     14.100000000 1
     5.640000000     19.740000000     16.920000000 2
     8.460000000     22.560000000     14.100000000 1
     8.460000000     22.560000000     16.920000000 2
    11.280000000     25.380000000     14.100000000 1
    11.280000000     25.380000000     16.920000000 2
    14.100000000     28.200000000     14.100000000 1
    14.100000000     28.200000000     16.920000000 2
     2.820000000     14.100000000     16.920000000 1
     2.820000000     14.100000000     19.740000000 2
     5.640000000     16.920000000     16.920000000 1
     5.640000000     16.920000000     19.740000000 2
     8.460000000     19.740000000     16.920000000 1
     8.460000000     19.740000000     19.740000000 2
    11.280000000     22.560000000     16.920000000 1
    11.280000000     22.560000000     19.740000000 2
    14.100000000     25.380000000     16.920000000 1
    14.100000000     25.380000000     19.740000000 2
    16.920000000     28.200000000     16.920000000 1
    16.920000000     28.200000000     19.740000000 2
     5.640000000     14.100000000     19.740000000 1
     5.640000000     14.100000000     22.560000000 2
     8.460000000     16.920000000     19.740000000 1
     8.460000000     16.920000000     22.560000000 2
    11.280000000     19.740000000     19.740000000 1
    11.280000000     19.740000000     22.560000000 2
    14.100000000     22.560000000     19.740000000 1
    14.100000000     22.560000000     22.560000000 2
    16.920000000     25.380000000     19.740000000 1
    16.920000000     25.380000000     22.560000000 2
    19.740000000     28.200000000     19.740000000 1
    19.740000000     28.200000000     22.560000000 2
     8.460000000     14.100000000     22.560000000 1
     8.460000000     14.100000000     25.380000000 2
    11.280000000     16.920000000     22.560000000 1
    11.280000000     16.920000000     25.380000000 2
    14.100000000     19.740000000     22.560000000 1
    14.100000000     19.740000000     25.380000000 2
    16.920000000     22.560000000     22.560000000 1
    16.920000000     22.560000000     25.380000000 2
    19.740000000     25.380000000     22.560000000 1
    19.740000000     25.380000000     25.380000000 2
    22.560000000     28.200000000     22.560000000 1
    22.560000000     28.200000000     25.380000000 2
    11.280000000     14.100000000     25.380000000 1
    11.280000000     14.100000000     28.200000000 2
    14.100000000     16.920000000     25.380000000 1
    14.100000000     16.920000000     28.200000000 2
    16.920000000     19.740000000     25.380000000 1
    16.920000000     19.740000000     28.200000000 2
    19.740000000     22.560000000     25.380000000 1
    19.740000000     22.560000000     28.200000000 2
    22.560000000     25.380000000     25.380000000 1
    22.560000000     25.380000000     28.200000000 2
    25.380000000     28.200000000     25.380000000 1
    25.380000000     28.200000000     28.200000000 2
    14.100000000     14.100000000     28.200000000 1
    14.100000000     14.100000000     31.020000000 2
    16.920000000     16.920000000     28.200000000 1
    16.920000000     16.920000000     31.020000000 2
    19.740000000     19.740000000     28.200000000 1
    19.740000000     19.740000000     31.020000000 2
    22.560000000     22.560000000     28.200000000 1
    22.560000000     22.560000000     31.020000000 2
    25.380000000     25.380000000     28.200000000 1
    25.380000000     25.380000000     31.020000000 2
    28.200000000     28.200000000     28.200000000 1
    28.200000000     28.200000000     31.020000000 2
     0.000000000     -0.020000000      0.000000000 1
     0.000000000     -0.020000000      2.820000000 2
     2.820000000      2.800000000      0.000000000 1
     2.820000000      2.800000000      2.820000000 2
     5.640000000      5.620000000      0.000000000 1
     5.640000000      5.620000000      2.820000000 2
     8.460000000      8.440000000      0.000000000 1
     8.460000000      8.440000000      2.820000000 2
    11.280000000     11.260000000      0.000000000 1
    11.280000000     11.260000000      2.820000000 2
    14.100000000     14.080000000      0.000000000 1
    14.100000000     14.080000000      2.820000000 2
     2.820000000     -0.020000000      2.820000000 1
     2.820000000     -0.020000000      5.640000000 2
     5.640000000      2.800000000      2.820000000 1
     5.640000000      2.800000000      5.640000000 2
     8.460000000      5.620000000      2.820000000 1
     8.460000000      5.620000000      5.640000000 2
    11.280000000      8.440000000      2.820000000 1
    11.280000000      8.440000000      5.640000000 2
    14.100000000     11.260000000      2.820000000 1
    14.100000000     11.260000000      5.640000000 2
    16.920000000     14.080000000      2.820000000 1
    16.920000000     14.080000000      5.640000000 2
     5.640000000     -0.020000000      5.640000000 1
     5.640000000     -0.020000000      8.460000000 2
     8.460000000      2.800000000      5.640000000 1
     8.460000000      2.800000000      8.460000000 2
    11.280000000      5.620000000      5.640000000 1
    11.280000000      5.620000000      8.460000000 2
    14.100000000      8.440000000      5.640000000 1
    14.100000000      8.440000000      8.460000000 2
    16.920000000     11.260000000      5.640000000 1
    16.920000000     11.260000000      8.460000000 2
    19.740000000     14.080000000      5.640000000 1
    19.740000000     14.080000000      8.460000000 2
     8.460000000     -0.020000000      8.460000000 1
     8.460000000     -0.020000000     11.280000000 2
    11.280000000      2.800000000      8.460000000 1
    11.280000000      2.800000000     11.280000000 2
    14.100000000      5.620000000      8.460000000 1
    14.100000000      5.620000000     11.280000000 2
    16.920000000      8.440000000      8.460000000 1
    16.920000000      8.440000000     11.280000000 2
    19.740000000     11.260000000      8.460000000 1
    19.740000000     11.260000000     11.280000000 2
    22.560000000     14.080000000      8.460000000 1
    22.560000000     14.080000000     11.280000000 2
    11.280000000     -0.020000000     11.280000000 1
    11.280000000     -0.020000000     14.100000000 2
    14.100000000      2.800000000     11.280000000 1
    14.100000000      2.800000000     14.100000000 2
    16.920000000      5.620000000     11.280000000 1
    16.920000000      5.620000000     14.100000000 2
    19.740000000      8.440000000     11.280000000 1
    19.740000000      8.440000000     14.100000000 2
    22.560000000     11.260000000     11.280000000 1
    22.560000000     11.260000000     14.100000000 2
    25.380000000     14.080000000     11.280000000 1
    25.380000000     14.080000000     14.100000000 2
    14.100000000     -0.020000000     14.100000000 1
    14.100000000     -0.020000000     16.920000000 2
    16.920000000      2.800000000     14.100000000 1
    16.920000000      2.800000000     16.920000000 2
    19.740000000      5.620000000     14.100000000 1
    19.740000000      5.620000000     16.920000000 2
    22.560000000      8.440000000     14.100000000 1
    22.560000000      8.440000000     16.920000000 2
    25.380000000     11.260000000     14.100000000 1
    25.380000000     11.260000000     16.920000000 2
    28.200000000     14.080000000     14.100000000 1
    28.200000000     14.080000000     16.920000000 2
     0.000000000      2.800000000      2.820000000 1
     0.000000000      2.800000000      5.640000000 2
     2.820000000      5.620000000      2.820000000 1
     2.820000000      5.620000000      5.640000000 2
     5.640000000      8.440000000      2.820000000 1
     5.640000000      8.440000000      5.640000000 2
     8.460000000     11.260000000      2.820000000 1
     8.460000000     11.260000000      5.640000000 2
    11.280000000     14.080000000      2.820000000 1
    11.280000000     14.080000000      5.640000000 2
    14.100000000     16.900000000      2.820000000 1
    14.100000000     16.900000000      5.640000000 2
     2.820000000      2.800000000      5.640000000 1
     2.820000000      2.800000000      8.460000000 2
     5.640000000      5.620000000      5.640000000 1
     5.640000000      5.620000000      8.460000000 2
     8.460000000      8.440000000      5.640000000 1
     8.460000000      8.440000000      8.460000000 2
    11.280000000     11.260000000      5.640000000 1
    11.280000000     11.260000000      8.460000000 2
    14.100000000     14.080000000      5.640000000 1
    14.100000000     14.080000000      8.460000000 2
    16.920000000     16.900000000      5.640000000 1
    16.920000000     16.900000000      8.460000000 2
     5.640000000      2.800000000      8.460000000 1
     5.640000000      2.800000000     11.280000000 2
     8.460000000      5.620000000      8.460000000 1
     8.460000000      5.620000000     11.280000000 2
    11.280000000      8.440000000      8.460000000 1
    11.280000000      8.440000000     11.280000000 2
    14.100000000     11.260000000      8.460000000 1
    14.100000000     11.260000000     11.280000000 2
    16.920000000     14.080000000      8.460000000 1
    16.920000000     14.080000000     11.280000000 2
    19.740000000     16.900000000      8.460000000 1
    19.740000000     16.900000000     11.280000000 2
     8.460000000      2.800000000     11.280000000 1
     8.460000000      2.800000000     14.100000000 2
    11.280000000      5.620000000     11.280000000 1
    11.280000000      5.620000000     14.100000000 2
    14.100000000      8.440000000     11.280000000 1
    14.100000000      8.440000000     14.100000000 2
    16.920000000     11.260000000     11.280000000 1
    16.920000000     11.260000000     14.100000000 2
    19.740000000     14.080000000     11.280000000 1
    19.740000000     14.080000000     14.100000000 2
    22.560000000     16.900000000     11.280000000 1
    22.560000000     16.900000000     14.100000000 2
    11.280000000      2.800000000     14.100000000 1
    11.280000000      2.800000000     16.920000000 2
    14.100000000      5.620000000     14.100000000 1
    14.100000000      5.620000000     16.920000000 2
    16.920000000      8.440000000     14.100000000 1
    16.920000000      8.440000000     16.920000000 2
    19.740000000     11.260000000     14.100000000 1