NumberOfAtoms 34
NumberOfSpecies 1
LatticeConstant 1.0 Ang
%block LatticeVectors
     6.500000000      0.000000000      0.000000000 
     0.000000000      6.500000000      0.000000000 
     0.000000000      0.000000000     22.100000000 
%endblock LatticeVectors
AtomicCoordinatesFormat  Ang
%block AtomicCoordinatesAndAtomicSpecies
     0.000000000      0.000000000      0.000000000 1
     0.000000000      0.000000000      1.300000000 1
     0.000000000      0.000000000      2.600000000 1
     0.000000000      0.000000000      3.900000000 1
     0.000000000      0.000000000      5.200000000 1
     0.000000000      0.000000000      6.500000000 1
     0.000000000      0.000000000      7.800000000 1
     0.000000000      0.000000000      9.100000000 1
     0.000000000      0.000000000     10.400000000 1
     0.000000000      0.000000000     11.700000000 1
     0.000000000      0.000000000     13.000000000 1
     0.000000000      0.000000000     14.300000000 1
     0.000000000      0.000000000     15.600000000 1
     0.000000000      0.000000000     16.900000000 1
     0.000000000      0.000000000     18.200000000 1
     0.000000000      0.000000000     19.500000000 1
     0.000000000      0.000000000     20.800000000 1
     0.000000000     -0.020000000      0.000000000 1
     0.000000000     -0.020000000      1.300000000 1
     0.000000000     -0.020000000      2.600000000 1
     0.000000000     -0.020000000      3.900000000 1
     0.000000000     -0.020000000      5.200000000 1
     0.000000000     -0.020000000      6.500000000 1
     0.000000000     -0.020000000      7.800000000 1
     0.000000000     -0.020000000      9.100000000 1
     0.000000000     -0.020000000     10.400000000 1
     0.000000000     -0.020000000     11.700000000 1
     0.000000000     -0.020000000     13.000000000 1
     0.000000000     -0.020000000     14.300000000 1
     0.000000000     -0.020000000     15.600000000 1
     0.000000000     -0.020000000     16.900000000 1
     0.000000000     -0.020000000     18.200000000 1
     0.000000000     -0.020000000     19.500000000 1
     0.000000000     -0.020000000     20.800000000 1
%endblock AtomicCoordinatesAndAtomicSpecies
