
SystemName          4HSiC
SystemLabel         4HSiC

NumberOfAtoms      8
NumberOfSpecies       2

%block ChemicalSpeciesLabel
  1   14  Si.gga
  2   6  C.mpn 
%endblock ChemicalSpeciesLabel


%block kgrid_Monkhorst_Pack 
9  0  0      0.00 
0  9  0       0.00 
0  0  5      0.00 
%endblock kgrid_Monkhorst_Pack 


PAO.BasisType split    
%block PAO.Basis                 # Define Basis set
Si.gga                2                    # Species label, number of l-shells
 n=3   0   2                         # n, l, Nzeta 
   5.007      4.419   
   1.000      1.000   
 n=3   1   2 P   1                   # n, l, Nzeta, Polarization, NzetaPol
   6.271      5.007   
   1.000      1.000   
C.mpn                 2                    # Species label, number of l-shells
 n=2   0   2                         # n, l, Nzeta 
   4.088      3.347   
   1.000      1.000   
 n=2   1   2 P   1                   # n, l, Nzeta, Polarization, NzetaPol
   4.870      3.475   
   1.000      1.000   
%endblock PAO.Basis

XC.functional    GGA
XC.authors       PBE

LatticeConstant      3.07  Ang
%block LatticeVectors
1.000  0.00000 0.000000
0.50000  0.866025404  0.000000
0.000000  0.000000  3.404
%endblock LatticeVectors



AtomicCoordinatesFormat  fractional
%block AtomicCoordinatesAndAtomicSpecies
0.0000000    0.0000000    1.0000000    1   #Si
0.3333333    0.3333333    0.7500000    1   #Si
0.6666667    0.6666667    0.5000000    1   #Si
0.3333333    0.3333333    0.2500000    1   #Si
0.3333333    0.3333333    0.9375000    2   #C
0.6666667    0.6666667    0.6875000    2   #C
0.3333333    0.3333333    0.4375000    2   #C
0.0000000    0.0000000    0.1875000    2   #C
%endblock AtomicCoordinatesAndAtomicSpecies


BandLinesScale  ReciprocalLatticeVectors 
%block BandLines 
1  0.66666666    0.33333333    0.00000000    \K 
20  0.500000000    0.00000000    0.00000000   \M 
20  0.00000000    0.00000000    0.00000000    \Gamma 
20  0.66666666    0.33333333    0.00000000    \K 
%endblock BandLines 


MeshCutoff  200.0 Ry 
MaxSCFIterations  100 
DM.MixingWeight   0.05 
DM.NumberPulay   10 
DM.Tolerance   1.d-4 
DM.UseSaveDM   true 
SolutionMethod diagon 
DivideAndConquer true 

%block ProjectedDensityOfStates
  -20.00  20.00  0.200  1000  eV
%endblock ProjectedDensityOfStates

WriteForces true 
WriteCoorXmol true 
WriteCoorCerius false 
WriteMDXmol true 
WriteMDhistory true 

