NumberOfAtoms=24
NumberOfSpecies=2 
LatticeConstant 1.0000 Ang
%block LatticeVectors 
4.695  2.7106595138452927  0.0
4.695  -2.7106595138452927  0.0
0.0  0.0  10.25075
%endblock LatticeVectors 
AtomicCoordinatesFormat Ang 
%block AtomicCoordinatesAndAtomicSpecies 
3.13  -1.8071063425635283    0.0  1
6.26  -1.8071063425635285    0.0  1
9.39  -1.8071063425635283    0.0  1
1.565  -0.9035531712817642    0.6406718749999989  2
4.695  -0.9035531712817642    0.6406718749999989  2
7.825  -0.9035531712817644    0.6406718749999989  2
1.565  -0.9035531712817642    2.562687499999999  1
4.695  -0.9035531712817642    2.562687499999999  1
7.825  -0.9035531712817644    2.562687499999999  1
0.0  0.0    3.203359374999998  2
3.13  0.0    3.203359374999998  2
6.26  0.0    3.203359374999998  2
0.0  0.0    5.125374999999998  1
3.13  0.0    5.125374999999998  1
6.26  0.0    5.125374999999998  1
1.565  -0.9035531712817642    5.766046874999997  2
4.695  -0.9035531712817642    5.766046874999997  2
7.825  -0.9035531712817644    5.766046874999997  2
1.565  -0.9035531712817642    7.688062500000001  1
4.695  -0.9035531712817642    7.688062500000001  1
7.825  -0.9035531712817644    7.688062500000001  1
3.13  -1.8071063425635283    8.328734374999996  2
6.26  -1.8071063425635285    8.328734374999996  2
9.39  -1.8071063425635283    8.328734374999996  2
%endblock AtomicCoordinatesAndAtomicSpecies 
