NumberOfAtoms 6
NumberOfSpecies 3
LatticeConstant 1.0 Ang
%block LatticeVectors
     2.578054756      0.000000000      0.00000000
     1.289027378      2.232660911      0.00000000 
     0.000000000      0.000000000     12.62983736
%endblock LatticeVectors
AtomicCoordinatesFormat  Ang
%block AtomicCoordinatesAndAtomicSpecies
     1.289027378      0.744220304     -4.209945785 3
     2.578054756      1.488440607     -2.104972892 3
     0.000000000      0.000000000      0.000000001 3
     1.289027378      0.744220304      2.104972892 3
     2.578054756      1.488440607      4.209945785 3
     0.000000000      0.000000000      6.314918680 3
%endblock AtomicCoordinatesAndAtomicSpecies
