NumberOfAtoms 22
NumberOfSpecies 2
LatticeConstant 1.0 Ang
%block LatticeVectors
     9.000000000      0.000000000      0.000000000 
     0.000000000      9.000000000      0.000000000 
     0.000000000      0.000000000     52.860000000 
%endblock LatticeVectors
AtomicCoordinatesFormat  Ang
%block AtomicCoordinatesAndAtomicSpecies
     0.000000000      0.000000000      0.000000000 1
     0.000000000      0.000000000      2.540000000 1
     0.000000000      0.000000000      5.080000000 1
     0.000000000      0.000000000      7.620000000 1
     0.000000000      0.000000000     10.160000000 1
     0.000000000      0.000000000     12.700000000 1
     0.000000000      0.000000000     15.240000000 1
     0.000000000      0.000000000     17.780000000 1
     0.000000000      0.000000000     20.320000000 1
    -0.000001103     -0.000000081     22.924986343 1
    -0.000000033     -0.000000067     24.676819937 2
     0.000000074      0.000000084     25.647049315 2
    -0.000000393     -0.000000312     27.395850292 1
     0.000000000      0.000000000     30.000000000 1
     0.000000000      0.000000000     32.540000001 1
     0.000000000      0.000000000     35.080000000 1
     0.000000000      0.000000000     37.620000000 1
     0.000000000      0.000000000     40.160000000 1
     0.000000000      0.000000000     42.700000000 1
     0.000000000      0.000000000     45.240000000 1
     0.000000000      0.000000000     47.780000000 1
     0.000000000      0.000000000     50.320000000 1
%endblock AtomicCoordinatesAndAtomicSpecies
