NumberOfAtoms 166
NumberOfSpecies 5
LatticeConstant 1.0 Ang
%block LatticeVectors
     4.695000000      2.710659514      0.000000000 
     4.695000000     -2.710659514      0.000000000 
     0.000000000      0.000000000     70.424373000 
%endblock LatticeVectors
AtomicCoordinatesFormat  Ang
%block AtomicCoordinatesAndAtomicSpecies
     1.565000000     -0.903553000      0.760016000 4
     4.695000000     -0.903553000      0.760016000 4
     7.825000000     -0.903553000      0.760016000 4
     1.565000000     -0.903553000      1.922016000 3
     4.695000000     -0.903553000      1.922016000 3
     7.825000000     -0.903553000      1.922016000 3
     0.000000000      0.000000000      2.562687000 2
     3.130000000      0.000000000      2.562687000 2
     6.260000000      0.000000000      2.562687000 2
     0.000000000      0.000000000      4.484703000 3
     3.130000000      0.000000000      4.484703000 3
     6.260000000      0.000000000      4.484703000 3
     1.565000000     -0.903553000      5.125375000 2
     4.695000000     -0.903553000      5.125375000 2
     7.825000000     -0.903553000      5.125375000 2
     1.565000000     -0.903553000      7.047391000 3
     4.695000000     -0.903553000      7.047391000 3
     7.825000000     -0.903553000      7.047391000 3
     3.130000000     -1.807106000      7.688062000 2
     6.260000000     -1.807106000      7.688062000 2
     9.390000000     -1.807106000      7.688062000 2
     3.130000000     -1.807106000      9.610078000 3
     6.260000000     -1.807106000      9.610078000 3
     9.390000000     -1.807106000      9.610078000 3
     1.565000000     -0.903553000     10.250750000 2
     4.695000000     -0.903553000     10.250750000 2
     7.825000000     -0.903553000     10.250750000 2
     1.565000000     -0.903553000     12.172766000 3
     4.695000000     -0.903553000     12.172766000 3
     7.825000000     -0.903553000     12.172766000 3
     0.000000000      0.000000000     12.813437000 2
     3.130000000      0.000000000     12.813437000 2
     6.260000000      0.000000000     12.813437000 2
     0.000000000      0.000000000     14.735453000 3
     3.130000000      0.000000000     14.735453000 3
     6.260000000      0.000000000     14.735453000 3
     1.565000000     -0.903553000     15.376125000 2
     4.695000000     -0.903553000     15.376125000 2
     7.825000000     -0.903553000     15.376125000 2
     1.565000000     -0.903553000     17.298141000 3
     4.695000000     -0.903553000     17.298141000 3
     7.825000000     -0.903553000     17.298141000 3
     3.130000000     -1.807106000     17.938812000 2
     6.260000000     -1.807106000     17.938812000 2
     9.390000000     -1.807106000     17.938812000 2
     3.131014182     -1.807407023     19.863508223 3
     9.389392073     -1.807420261     19.863537516 3
     6.260253743     -1.808888977     19.863584330 3
     4.699093665     -0.902172274     20.497862367 2
     7.821368852     -0.902164281     20.497971937 2
     1.565300901     -0.908879106     20.498051604 2
     4.668255680     -0.920141338     22.428628388 3
     7.852563622     -0.920266704     22.428764433 3
     1.565637245     -0.873420924     22.429033062 3
     6.260405404     -0.001221357     22.832511336 2
     3.130576713     -0.000888964     23.094893086 2
     0.000571515     -0.000877893     23.094342578 2
     0.001027936      0.001293642     25.110373612 1
     3.131012390      0.001307595     25.113535446 1
     0.813780428      1.405124053     25.405606031 1
    -1.621099337      0.003308790     25.405969713 1
     0.810445814     -1.404371253     25.406233289 1
     2.317923180      1.405846223     25.407749067 1
     4.753860118      0.003287478     25.407810327 1
     2.321126637     -1.405000107     25.408377550 1
     0.000213882     -0.000078674     28.644302643 1
     3.912393905      1.354723744     28.643953545 1
     1.565862497     -0.000090624     28.643958035 1
     3.912409888     -1.354878340     28.643966092 1
     2.347515314      1.355376492     28.645607046 1
     4.695406471      0.000033711     28.645621248 1
     2.347707334     -1.355640862     28.645648930 1
     6.260197922     -0.000065600     28.648229157 1
     0.000200000     -0.000058000     32.838389000 5
     0.000200000     -0.000058000     35.432389000 5
     0.000200000     -0.000058000     38.026389000 5
     0.000200000     -0.000058000     40.620389000 5
     0.000200000     -0.000058000     43.214389000 5
     0.000200000     -0.000058000     45.808389000 5
     0.000200000     -0.000058000     48.402389000 5
     0.000200000     -0.000058000     50.996389000 5
     0.000200000     -0.000058000     53.590389000 5
     0.000200000     -0.000058000     56.184389000 5
     1.585000000     -0.903553000      0.760016000 4
     4.715000000     -0.903553000      0.760016000 4
     7.845000000     -0.903553000      0.760016000 4
     1.585000000     -0.903553000      1.922016000 3
     4.715000000     -0.903553000      1.922016000 3
     7.845000000     -0.903553000      1.922016000 3
     0.020000000      0.000000000      2.562687000 2
     3.150000000      0.000000000      2.562687000 2
     6.280000000      0.000000000      2.562687000 2
     0.020000000      0.000000000      4.484703000 3
     3.150000000      0.000000000      4.484703000 3
     6.280000000      0.000000000      4.484703000 3
     1.585000000     -0.903553000      5.125375000 2
     4.715000000     -0.903553000      5.125375000 2
     7.845000000     -0.903553000      5.125375000 2
     1.585000000     -0.903553000      7.047391000 3
     4.715000000     -0.903553000      7.047391000 3
     7.845000000     -0.903553000      7.047391000 3
     3.150000000     -1.807106000      7.688062000 2
     6.280000000     -1.807106000      7.688062000 2
     9.410000000     -1.807106000      7.688062000 2
     3.150000000     -1.807106000      9.610078000 3
     6.280000000     -1.807106000      9.610078000 3
     9.410000000     -1.807106000      9.610078000 3
     1.585000000     -0.903553000     10.250750000 2
     4.715000000     -0.903553000     10.250750000 2
     7.845000000     -0.903553000     10.250750000 2
     1.585000000     -0.903553000     12.172766000 3
     4.715000000     -0.903553000     12.172766000 3
     7.845000000     -0.903553000     12.172766000 3
     0.020000000      0.000000000     12.813437000 2
     3.150000000      0.000000000     12.813437000 2
     6.280000000      0.000000000     12.813437000 2
     0.020000000      0.000000000     14.735453000 3
     3.150000000      0.000000000     14.735453000 3
     6.280000000      0.000000000     14.735453000 3
     1.585000000     -0.903553000     15.376125000 2
     4.715000000     -0.903553000     15.376125000 2
     7.845000000     -0.903553000     15.376125000 2
     1.585000000     -0.903553000     17.298141000 3
     4.715000000     -0.903553000     17.298141000 3
     7.845000000     -0.903553000     17.298141000 3
     3.150000000     -1.807106000     17.938812000 2
     6.280000000     -1.807106000     17.938812000 2
     9.410000000     -1.807106000     17.938812000 2
     3.151014182     -1.807407023     19.863508223 3
     9.409392073     -1.807420261     19.863537516 3
     6.280253743     -1.808888977     19.863584330 3
     4.719093665     -0.902172274     20.497862367 2
     7.841368852     -0.902164281     20.497971937 2
     1.585300901     -0.908879106     20.498051604 2
     4.688255680     -0.920141338     22.428628388 3
     7.872563622     -0.920266704     22.428764433 3
     1.585637245     -0.873420924     22.429033062 3
     6.280405404     -0.001221357     22.832511336 2
     3.150576713     -0.000888964     23.094893086 2
     0.020571515     -0.000877893     23.094342578 2
     0.021027936      0.001293642     25.110373612 1
     3.151012390      0.001307595     25.113535446 1
     0.833780428      1.405124053     25.405606031 1
    -1.601099337      0.003308790     25.405969713 1
     0.830445814     -1.404371253     25.406233289 1
     2.337923180      1.405846223     25.407749067 1
     4.773860118      0.003287478     25.407810327 1
     2.341126637     -1.405000107     25.408377550 1
     0.020213882     -0.000078674     28.644302643 1
     3.932393905      1.354723744     28.643953545 1
     1.585862497     -0.000090624     28.643958035 1
     3.932409888     -1.354878340     28.643966092 1
     2.367515314      1.355376492     28.645607046 1
     4.715406471      0.000033711     28.645621248 1
     2.367707334     -1.355640862     28.645648930 1
     6.280197922     -0.000065600     28.648229157 1
     0.020200000     -0.000058000     32.838389000 5
     0.020200000     -0.000058000     35.432389000 5
     0.020200000     -0.000058000     38.026389000 5
     0.020200000     -0.000058000     40.620389000 5
     0.020200000     -0.000058000     43.214389000 5
     0.020200000     -0.000058000     45.808389000 5
     0.020200000     -0.000058000     48.402389000 5
     0.020200000     -0.000058000     50.996389000 5
     0.020200000     -0.000058000     53.590389000 5
     0.020200000     -0.000058000     56.184389000 5
%endblock AtomicCoordinatesAndAtomicSpecies
