NumberOfAtoms 166
NumberOfSpecies 5
LatticeConstant 1.0 Ang
%block LatticeVectors
     4.695000000      2.710659514      0.000000000 
     4.695000000     -2.710659514      0.000000000 
     0.000000000      0.000000000     70.424373000 
%endblock LatticeVectors
AtomicCoordinatesFormat  Ang
%block AtomicCoordinatesAndAtomicSpecies
     1.565000000     -0.903553000      0.760016000 4 # 1
     4.695000000     -0.903553000      0.760016000 4 # 2
     7.825000000     -0.903553000      0.760016000 4 # 3
     1.565000000     -0.903553000      1.922016000 3 # 4
     4.695000000     -0.903553000      1.922016000 3 # 5
     7.825000000     -0.903553000      1.922016000 3 # 6
     0.000000000      0.000000000      2.562687000 2 # 7
     3.130000000      0.000000000      2.562687000 2 # 8
     6.260000000      0.000000000      2.562687000 2 # 9
     0.000000000      0.000000000      4.484703000 3 # 10
     3.130000000      0.000000000      4.484703000 3 # 11
     6.260000000      0.000000000      4.484703000 3 # 12
     1.565000000     -0.903553000      5.125375000 2 # 13
     4.695000000     -0.903553000      5.125375000 2 # 14
     7.825000000     -0.903553000      5.125375000 2 # 15
     1.565000000     -0.903553000      7.047391000 3 # 16
     4.695000000     -0.903553000      7.047391000 3 # 17
     7.825000000     -0.903553000      7.047391000 3 # 18
     3.130000000     -1.807106000      7.688062000 2 # 19
     6.260000000     -1.807106000      7.688062000 2 # 20
     9.390000000     -1.807106000      7.688062000 2 # 21
     3.130000000     -1.807106000      9.610078000 3 # 22
     6.260000000     -1.807106000      9.610078000 3 # 23
     9.390000000     -1.807106000      9.610078000 3 # 24
     1.565000000     -0.903553000     10.250750000 2 # 25
     4.695000000     -0.903553000     10.250750000 2 # 26
     7.825000000     -0.903553000     10.250750000 2 # 27
     1.565000000     -0.903553000     12.172766000 3 # 28
     4.695000000     -0.903553000     12.172766000 3 # 29
     7.825000000     -0.903553000     12.172766000 3 # 30
     0.000000000      0.000000000     12.813437000 2 # 31
     3.130000000      0.000000000     12.813437000 2 # 32
     6.260000000      0.000000000     12.813437000 2 # 33
     0.000000000      0.000000000     14.735453000 3 # 34
     3.130000000      0.000000000     14.735453000 3 # 35
     6.260000000      0.000000000     14.735453000 3 # 36
     1.565000000     -0.903553000     15.376125000 2 # 37
     4.695000000     -0.903553000     15.376125000 2 # 38
     7.825000000     -0.903553000     15.376125000 2 # 39
     1.565000000     -0.903553000     17.298141000 3 # 40
     4.695000000     -0.903553000     17.298141000 3 # 41
     7.825000000     -0.903553000     17.298141000 3 # 42
     3.130000000     -1.807106000     17.938812000 2 # 43
     6.260000000     -1.807106000     17.938812000 2 # 44
     9.390000000     -1.807106000     17.938812000 2 # 45
     3.131007652     -1.807412370     19.863585225 3 # 46
     9.389399792     -1.807424869     19.863614108 3 # 47
     6.260252296     -1.808874860     19.863660987 3 # 48
     4.699144270     -0.902138561     20.497831677 2 # 49
     7.821309262     -0.902130819     20.497932685 2 # 50
     1.565299798     -0.908942999     20.498008591 2 # 51
     4.668319102     -0.920098349     22.428844906 3 # 52
     7.852491795     -0.920227343     22.428980774 3 # 53
     1.565639318     -0.873478991     22.429243474 3 # 54
     6.260398295     -0.001215079     22.832034827 2 # 55
     3.130578414     -0.000878759     23.094994554 2 # 56
     0.000568491     -0.000869598     23.094405474 2 # 57
     0.001033880      0.001291339     25.110215448 1 # 58
     3.131011143      0.001305355     25.113388960 1 # 59
     0.813878120      1.405206919     25.405487042 1 # 60
    -1.621215716      0.003342190     25.405846617 1 # 61
     0.810470866     -1.404501171     25.406108484 1 # 62
     2.317825172      1.405923891     25.407637615 1 # 63
     4.753991996      0.003321302     25.407721144 1 # 64
     2.321097368     -1.405131019     25.408285842 1 # 65
     0.000216385     -0.000080551     28.644403564 1 # 66
     3.912395656      1.354731331     28.643981699 1 # 67
     1.565854162     -0.000090293     28.643986171 1 # 68
     3.912414249     -1.354885822     28.643994417 1 # 69
     2.347512497      1.355382095     28.645599803 1 # 70
     4.695413704      0.000034081     28.645613571 1 # 71
     2.347702955     -1.355645572     28.645641357 1 # 72
     6.260197526     -0.000065413     28.648248258 1 # 73
     0.000200000     -0.000058000     32.838389000 5 # 74
     0.000200000     -0.000058000     35.432389000 5 # 75
     0.000200000     -0.000058000     38.026389000 5 # 76
     0.000200000     -0.000058000     40.620389000 5 # 77
     0.000200000     -0.000058000     43.214389000 5 # 78
     0.000200000     -0.000058000     45.808389000 5 # 79
     0.000200000     -0.000058000     48.402389000 5 # 80
     0.000200000     -0.000058000     50.996389000 5 # 81
     0.000200000     -0.000058000     53.590389000 5 # 82
     0.000200000     -0.000058000     56.184389000 5 # 83
     1.585000000     -0.903553000      0.760016000 4 # 84
     4.715000000     -0.903553000      0.760016000 4 # 85
     7.845000000     -0.903553000      0.760016000 4 # 86
     1.585000000     -0.903553000      1.922016000 3 # 87
     4.715000000     -0.903553000      1.922016000 3 # 88
     7.845000000     -0.903553000      1.922016000 3 # 89
     0.020000000      0.000000000      2.562687000 2 # 90
     3.150000000      0.000000000      2.562687000 2 # 91
     6.280000000      0.000000000      2.562687000 2 # 92
     0.020000000      0.000000000      4.484703000 3 # 93
     3.150000000      0.000000000      4.484703000 3 # 94
     6.280000000      0.000000000      4.484703000 3 # 95
     1.585000000     -0.903553000      5.125375000 2 # 96
     4.715000000     -0.903553000      5.125375000 2 # 97
     7.845000000     -0.903553000      5.125375000 2 # 98
     1.585000000     -0.903553000      7.047391000 3 # 99
     4.715000000     -0.903553000      7.047391000 3 # 100
     7.845000000     -0.903553000      7.047391000 3 # 101
     3.150000000     -1.807106000      7.688062000 2 # 102
     6.280000000     -1.807106000      7.688062000 2 # 103
     9.410000000     -1.807106000      7.688062000 2 # 104
     3.150000000     -1.807106000      9.610078000 3 # 105
     6.280000000     -1.807106000      9.610078000 3 # 106
     9.410000000     -1.807106000      9.610078000 3 # 107
     1.585000000     -0.903553000     10.250750000 2 # 108
     4.715000000     -0.903553000     10.250750000 2 # 109
     7.845000000     -0.903553000     10.250750000 2 # 110
     1.585000000     -0.903553000     12.172766000 3 # 111
     4.715000000     -0.903553000     12.172766000 3 # 112
     7.845000000     -0.903553000     12.172766000 3 # 113
     0.020000000      0.000000000     12.813437000 2 # 114
     3.150000000      0.000000000     12.813437000 2 # 115
     6.280000000      0.000000000     12.813437000 2 # 116
     0.020000000      0.000000000     14.735453000 3 # 117
     3.150000000      0.000000000     14.735453000 3 # 118
     6.280000000      0.000000000     14.735453000 3 # 119
     1.585000000     -0.903553000     15.376125000 2 # 120
     4.715000000     -0.903553000     15.376125000 2 # 121
     7.845000000     -0.903553000     15.376125000 2 # 122
     1.585000000     -0.903553000     17.298141000 3 # 123
     4.715000000     -0.903553000     17.298141000 3 # 124
     7.845000000     -0.903553000     17.298141000 3 # 125
     3.150000000     -1.807106000     17.938812000 2 # 126
     6.280000000     -1.807106000     17.938812000 2 # 127
     9.410000000     -1.807106000     17.938812000 2 # 128
     3.151007652     -1.807412370     19.863585225 3 # 129
     9.409399792     -1.807424869     19.863614108 3 # 130
     6.280252296     -1.808874860     19.863660987 3 # 131
     4.719144270     -0.902138561     20.497831677 2 # 132
     7.841309262     -0.902130819     20.497932685 2 # 133
     1.585299798     -0.908942999     20.498008591 2 # 134
     4.688319102     -0.920098349     22.428844906 3 # 135
     7.872491795     -0.920227343     22.428980774 3 # 136
     1.585639318     -0.873478991     22.429243474 3 # 137
     6.280398295     -0.001215079     22.832034827 2 # 138
     3.150578414     -0.000878759     23.094994554 2 # 139
     0.020568491     -0.000869598     23.094405474 2 # 140
     0.021033880      0.001291339     25.110215448 1 # 141
     3.151011143      0.001305355     25.113388960 1 # 142
     0.833878120      1.405206919     25.405487042 1 # 143
    -1.601215716      0.003342190     25.405846617 1 # 144
     0.830470866     -1.404501171     25.406108484 1 # 145
     2.337825172      1.405923891     25.407637615 1 # 146
     4.773991996      0.003321302     25.407721144 1 # 147
     2.341097368     -1.405131019     25.408285842 1 # 148
     0.020216385     -0.000080551     28.644403564 1 # 149
     3.932395656      1.354731331     28.643981699 1 # 150
     1.585854162     -0.000090293     28.643986171 1 # 151
     3.932414249     -1.354885822     28.643994417 1 # 152
     2.367512497      1.355382095     28.645599803 1 # 153
     4.715413704      0.000034081     28.645613571 1 # 154
     2.367702955     -1.355645572     28.645641357 1 # 155
     6.280197526     -0.000065413     28.648248258 1 # 156
     0.020200000     -0.000058000     32.838389000 5 # 157
     0.020200000     -0.000058000     35.432389000 5 # 158
     0.020200000     -0.000058000     38.026389000 5 # 159
     0.020200000     -0.000058000     40.620389000 5 # 160
     0.020200000     -0.000058000     43.214389000 5 # 161
     0.020200000     -0.000058000     45.808389000 5 # 162
     0.020200000     -0.000058000     48.402389000 5 # 163
     0.020200000     -0.000058000     50.996389000 5 # 164
     0.020200000     -0.000058000     53.590389000 5 # 165
     0.020200000     -0.000058000     56.184389000 5 # 166
%endblock AtomicCoordinatesAndAtomicSpecies
