NumberOfAtoms 166
NumberOfSpecies 5
LatticeConstant 1.0 Ang
%block LatticeVectors
     4.695000000      2.710659514      0.000000000 
     4.695000000     -2.710659514      0.000000000 
     0.000000000      0.000000000     70.424373000 
%endblock LatticeVectors
AtomicCoordinatesFormat  Ang
%block AtomicCoordinatesAndAtomicSpecies
     1.565000000     -0.903553000      0.760016000 4
     4.695000000     -0.903553000      0.760016000 4
     7.825000000     -0.903553000      0.760016000 4
     1.565000000     -0.903553000      1.922016000 3
     4.695000000     -0.903553000      1.922016000 3
     7.825000000     -0.903553000      1.922016000 3
     0.000000000      0.000000000      2.562687000 2
     3.130000000      0.000000000      2.562687000 2
     6.260000000      0.000000000      2.562687000 2
     0.000000000      0.000000000      4.484703000 3
     3.130000000      0.000000000      4.484703000 3
     6.260000000      0.000000000      4.484703000 3
     1.565000000     -0.903553000      5.125375000 2
     4.695000000     -0.903553000      5.125375000 2
     7.825000000     -0.903553000      5.125375000 2
     1.565000000     -0.903553000      7.047391000 3
     4.695000000     -0.903553000      7.047391000 3
     7.825000000     -0.903553000      7.047391000 3
     3.130000000     -1.807106000      7.688062000 2
     6.260000000     -1.807106000      7.688062000 2
     9.390000000     -1.807106000      7.688062000 2
     3.130000000     -1.807106000      9.610078000 3
     6.260000000     -1.807106000      9.610078000 3
     9.390000000     -1.807106000      9.610078000 3
     1.565000000     -0.903553000     10.250750000 2
     4.695000000     -0.903553000     10.250750000 2
     7.825000000     -0.903553000     10.250750000 2
     1.565000000     -0.903553000     12.172766000 3
     4.695000000     -0.903553000     12.172766000 3
     7.825000000     -0.903553000     12.172766000 3
     0.000000000      0.000000000     12.813437000 2
     3.130000000      0.000000000     12.813437000 2
     6.260000000      0.000000000     12.813437000 2
     0.000000000      0.000000000     14.735453000 3
     3.130000000      0.000000000     14.735453000 3
     6.260000000      0.000000000     14.735453000 3
     1.565000000     -0.903553000     15.376125000 2
     4.695000000     -0.903553000     15.376125000 2
     7.825000000     -0.903553000     15.376125000 2
     1.565000000     -0.903553000     17.298141000 3
     4.695000000     -0.903553000     17.298141000 3
     7.825000000     -0.903553000     17.298141000 3
     3.130000000     -1.807106000     17.938812000 2
     6.260000000     -1.807106000     17.938812000 2
     9.390000000     -1.807106000     17.938812000 2
     3.131014182     -1.807407023     19.863508223 3
     9.389392073     -1.807420261     19.863537516 3
     6.260253743     -1.808888977     19.863584330 3
     4.699093665     -0.902172274     20.497862367 2
     7.821368852     -0.902164281     20.497971937 2
     1.565300901     -0.908879106     20.498051604 2
     4.668255680     -0.920141338     22.428628388 3
     7.852563622     -0.920266704     22.428764433 3
     1.565637245     -0.873420924     22.429033062 3
     6.260405404     -0.001221357     22.832511336 2
     3.130576713     -0.000888964     23.094893086 2
     0.000571515     -0.000877893     23.094342578 2
     0.001027936      0.001293642     25.110373612 1
     3.131012390      0.001307595     25.113535446 1
     0.813780428      1.405124053     25.405606031 1
    -1.621099337      0.003308790     25.405969713 1
     0.810445814     -1.404371253     25.406233289 1
     2.317923180      1.405846223     25.407749067 1
     4.753860118      0.003287478     25.407810327 1
     2.321126637     -1.405000107     25.408377550 1
     0.000213882     -0.000078674     28.644302643 1
     3.912393905      1.354723744     28.643953545 1
     1.565862497     -0.000090624     28.643958035 1
     3.912409888     -1.354878340     28.643966092 1
     2.347515314      1.355376492     28.645607046 1
     4.695406471      0.000033711     28.645621248 1
     2.347707334     -1.355640862     28.645648930 1
     6.260197922     -0.000065600     28.648229157 1
     0.000200000     -0.000058000     32.838389000 5
     0.000200000     -0.000058000     35.432389000 5
     0.000200000     -0.000058000     38.026389000 5
     0.000200000     -0.000058000     40.620389000 5
     0.000200000     -0.000058000     43.214389000 5
     0.000200000     -0.000058000     45.808389000 5
     0.000200000     -0.000058000     48.402389000 5
     0.000200000     -0.000058000     50.996389000 5
     0.000200000     -0.000058000     53.590389000 5
     0.000200000     -0.000058000     56.184389000 5
     1.565000000     -0.903553000      0.780016000 4
     4.695000000     -0.903553000      0.780016000 4
     7.825000000     -0.903553000      0.780016000 4
     1.565000000     -0.903553000      1.942016000 3
     4.695000000     -0.903553000      1.942016000 3
     7.825000000     -0.903553000      1.942016000 3
     0.000000000      0.000000000      2.582687000 2
     3.130000000      0.000000000      2.582687000 2
     6.260000000      0.000000000      2.582687000 2
     0.000000000      0.000000000      4.504703000 3
     3.130000000      0.000000000      4.504703000 3
     6.260000000      0.000000000      4.504703000 3
     1.565000000     -0.903553000      5.145375000 2
     4.695000000     -0.903553000      5.145375000 2
     7.825000000     -0.903553000      5.145375000 2
     1.565000000     -0.903553000      7.067391000 3
     4.695000000     -0.903553000      7.067391000 3
     7.825000000     -0.903553000      7.067391000 3
     3.130000000     -1.807106000      7.708062000 2
     6.260000000     -1.807106000      7.708062000 2
     9.390000000     -1.807106000      7.708062000 2
     3.130000000     -1.807106000      9.630078000 3
     6.260000000     -1.807106000      9.630078000 3
     9.390000000     -1.807106000      9.630078000 3
     1.565000000     -0.903553000     10.270750000 2
     4.695000000     -0.903553000     10.270750000 2
     7.825000000     -0.903553000     10.270750000 2
     1.565000000     -0.903553000     12.192766000 3
     4.695000000     -0.903553000     12.192766000 3
     7.825000000     -0.903553000     12.192766000 3
     0.000000000      0.000000000     12.833437000 2
     3.130000000      0.000000000     12.833437000 2
     6.260000000      0.000000000     12.833437000 2
     0.000000000      0.000000000     14.755453000 3
     3.130000000      0.000000000     14.755453000 3
     6.260000000      0.000000000     14.755453000 3
     1.565000000     -0.903553000     15.396125000 2
     4.695000000     -0.903553000     15.396125000 2
     7.825000000     -0.903553000     15.396125000 2
     1.565000000     -0.903553000     17.318141000 3
     4.695000000     -0.903553000     17.318141000 3
     7.825000000     -0.903553000     17.318141000 3
     3.130000000     -1.807106000     17.958812000 2
     6.260000000     -1.807106000     17.958812000 2
     9.390000000     -1.807106000     17.958812000 2
     3.131014182     -1.807407023     19.883508223 3
     9.389392073     -1.807420261     19.883537516 3
     6.260253743     -1.808888977     19.883584330 3
     4.699093665     -0.902172274     20.517862367 2
     7.821368852     -0.902164281     20.517971937 2
     1.565300901     -0.908879106     20.518051604 2
     4.668255680     -0.920141338     22.448628388 3
     7.852563622     -0.920266704     22.448764433 3
     1.565637245     -0.873420924     22.449033062 3
     6.260405404     -0.001221357     22.852511336 2
     3.130576713     -0.000888964     23.114893086 2
     0.000571515     -0.000877893     23.114342578 2
     0.001027936      0.001293642     25.130373612 1
     3.131012390      0.001307595     25.133535446 1
     0.813780428      1.405124053     25.425606031 1
    -1.621099337      0.003308790     25.425969713 1
     0.810445814     -1.404371253     25.426233289 1
     2.317923180      1.405846223     25.427749067 1
     4.753860118      0.003287478     25.427810327 1
     2.321126637     -1.405000107     25.428377550 1
     0.000213882     -0.000078674     28.664302643 1
     3.912393905      1.354723744     28.663953545 1
     1.565862497     -0.000090624     28.663958035 1
     3.912409888     -1.354878340     28.663966092 1
     2.347515314      1.355376492     28.665607046 1
     4.695406471      0.000033711     28.665621248 1
     2.347707334     -1.355640862     28.665648930 1
     6.260197922     -0.000065600     28.668229157 1
     0.000200000     -0.000058000     32.858389000 5
     0.000200000     -0.000058000     35.452389000 5
     0.000200000     -0.000058000     38.046389000 5
     0.000200000     -0.000058000     40.640389000 5
     0.000200000     -0.000058000     43.234389000 5
     0.000200000     -0.000058000     45.828389000 5
     0.000200000     -0.000058000     48.422389000 5
     0.000200000     -0.000058000     51.016389000 5
     0.000200000     -0.000058000     53.610389000 5
     0.000200000     -0.000058000     56.204389000 5
%endblock AtomicCoordinatesAndAtomicSpecies
