NumberOfAtoms 27
NumberOfSpecies 1
LatticeConstant 1.0 Ang
%block LatticeVectors
     7.081590000      5.336370000      0.000000000 
     8.162220000     -3.464670000      0.000000000 
     0.000000000      0.000000000      7.239972360 
%endblock LatticeVectors
AtomicCoordinatesFormat  Ang
%block AtomicCoordinatesAndAtomicSpecies
1.69376  0.207967  -4.82665 1
4.05429  1.98676 -4.82665 1
 6.41482    3.76554 -4.82665 1
 4.4145 -0.946919 -4.82665 1
6.77503    0.831869 -4.82665  1
9.13556    2.61066 -4.82665 1
7.13524 -2.10181 -4.82665 1
9.49577 -0.323017 -4.82665 1 
11.8563 1.45577 -4.82665 1
0.666774 1.57082 -2.41332 1
3.02731    3.34961 -2.41332 1
5.38784 5.1284 -2.41332 1
3.38752    0.415935 -2.41332 1
5.74805 2.19472 -2.41332 1
8.10858    3.97351 -2.41332 1
6.10826 -0.738952 -2.41332 1
8.46879    1.03984 -2.41332 1
10.8293 2.81863 -2.41332 1
0. 0. 0. 1
2.36053 1.77879 0. 1
4.72106 3.55758    0. 1
2.72074 -1.15489 0. 1
5.08127 0.623902 0. 1
7.44181    2.40269 0. 1
5.44148 -2.30977 0. 1
7.80202 -0.530984    0. 1
10.1625 1.2478 0. 1
%endblock AtomicCoordinatesAndAtomicSpecies
