NumberOfAtoms 78
NumberOfSpecies 3
LatticeConstant 1.0 Ang
%block LatticeVectors
     7.734164266      0.000000000      0.000000000 
     3.867082134      6.697982733      0.000000000 
     0.000000000      0.000000000     29.354701827 
%endblock LatticeVectors
AtomicCoordinatesFormat  Ang
%block AtomicCoordinatesAndAtomicSpecies
     1.289027378      0.744220304      2.104972893 3 # 1
     3.867082133      0.744220304      2.104972893 3 # 2
     6.445136889      0.744220304      2.104972893 3 # 3
     2.578054756      2.976881214      2.104972893 3 # 4
     5.156109511      2.976881214      2.104972893 3 # 5
     7.734164267      2.976881214      2.104972893 3 # 6
     3.867082133      5.209542125      2.104972893 3 # 7
     6.445136889      5.209542125      2.104972893 3 # 8
     9.023191645      5.209542125      2.104972893 3 # 9
     2.578054756      1.488440607      4.209945787 3 # 10
     5.156109511      1.488440607      4.209945787 3 # 11
     7.734164267      1.488440607      4.209945787 3 # 12
     3.867082133      3.721101518      4.209945787 3 # 13
     6.445136889      3.721101518      4.209945787 3 # 14
     9.023191645      3.721101518      4.209945787 3 # 15
     5.156109511      5.953762429      4.209945787 3 # 16
     7.734164267      5.953762429      4.209945787 3 # 17
    10.312219023      5.953762429      4.209945787 3 # 18
     0.000000000      0.000000000      6.314918680 3 # 19
     2.578054756      0.000000000      6.314918680 3 # 20
     5.156109511      0.000000000      6.314918680 3 # 21
     1.289027378      2.232660911      6.314918680 3 # 22
     3.867082133      2.232660911      6.314918680 3 # 23
     6.445136889      2.232660911      6.314918680 3 # 24
     2.578054756      4.465321822      6.314918680 3 # 25
     5.156109511      4.465321822      6.314918680 3 # 26
     7.734164267      4.465321822      6.314918680 3 # 27
     1.291286297      0.744489108      8.447677829 3 # 28
     3.868438779      0.743496888      8.447103376 3 # 29
     6.447318595      0.741442177      8.456426952 3 # 30
     2.579076257      2.974932842      8.447530859 3 # 31
     5.168222669      2.982425634      8.461817884 3 # 32
     7.724874451      2.982511279      8.462355329 3 # 33
     3.866309532      5.210114635      8.456753599 3 # 34
     6.446543831      5.197068081      8.461250471 3 # 35
     9.026702194      5.209207130      8.456030023 3 # 36
     2.586023333      1.484194620     10.587818925 3 # 37
     5.159156708      1.475190140     10.581469065 3 # 38
     7.745145107      1.474637105     10.582951801 3 # 39
     3.862645491      3.719635280     10.579177063 3 # 40
     6.449758870      3.718191500     10.685898646 3 # 41
     9.041695325      3.718907983     10.582848166 3 # 42
     5.154863071      5.959347741     10.578865651 3 # 43
     7.747864725      5.959220080     10.580894068 3 # 44
    10.318324592      5.950662388     10.670489343 3 # 45
     6.489053957      3.738555059     12.575571171 1 # 46
     6.512794160      3.755596613     13.749776638 2 # 47
     6.445281728      3.721056598     21.131101143 3 # 48
     6.445318613      2.210580980     23.108322479 3 # 49
     5.137392937      4.476268492     23.108302668 3 # 50
     7.753440898      4.476382970     23.108311648 3 # 51
     1.289027378      0.744220304     25.144756041 3 # 52
     3.867082133      0.744220304     25.144756041 3 # 53
     6.445136889      0.744220304     25.144756041 3 # 54
     2.578054756      2.976881214     25.144756041 3 # 55
     5.156109511      2.976881214     25.144756041 3 # 56
     7.734164267      2.976881214     25.144756041 3 # 57
     3.867082133      5.209542125     25.144756041 3 # 58
     6.445136889      5.209542125     25.144756041 3 # 59
     9.023191645      5.209542125     25.144756041 3 # 60
     2.578054756      1.488440607     27.249728934 3 # 61
     5.156109511      1.488440607     27.249728934 3 # 62
     7.734164267      1.488440607     27.249728934 3 # 63
     3.867082133      3.721101518     27.249728934 3 # 64
     6.445136889      3.721101518     27.249728934 3 # 65
     9.023191645      3.721101518     27.249728934 3 # 66
     5.156109511      5.953762429     27.249728934 3 # 67
     7.734164267      5.953762429     27.249728934 3 # 68
    10.312219023      5.953762429     27.249728934 3 # 69
     0.000000000      0.000000000     29.354701828 3 # 70
     2.578054756      0.000000000     29.354701828 3 # 71
     5.156109511      0.000000000     29.354701828 3 # 72
     1.289027378      2.232660911     29.354701828 3 # 73
     3.867082133      2.232660911     29.354701828 3 # 74
     6.445136889      2.232660911     29.354701828 3 # 75
     2.578054756      4.465321822     29.354701828 3 # 76
     5.156109511      4.465321822     29.354701828 3 # 77
     7.734164267      4.465321822     29.354701828 3 # 78
%endblock AtomicCoordinatesAndAtomicSpecies
