NumberOfAtoms 83
NumberOfSpecies 5
LatticeConstant 1.0 Ang
%block LatticeVectors
     4.695000000      2.710659514      0.000000000 
     4.695000000     -2.710659514      0.000000000 
     0.000000000      0.000000000     70.424373000 
%endblock LatticeVectors
AtomicCoordinatesFormat  Ang
%block AtomicCoordinatesAndAtomicSpecies
     1.565000000     -0.903553000      0.760016000 4 # 1
     4.695000000     -0.903553000      0.760016000 4 # 2
     7.825000000     -0.903553000      0.760016000 4 # 3
     1.565000000     -0.903553000      1.922016000 3 # 4
     4.695000000     -0.903553000      1.922016000 3 # 5
     7.825000000     -0.903553000      1.922016000 3 # 6
     0.000000000      0.000000000      2.562687000 2 # 7
     3.130000000      0.000000000      2.562687000 2 # 8
     6.260000000      0.000000000      2.562687000 2 # 9
     0.000000000      0.000000000      4.484703000 3 # 10
     3.130000000      0.000000000      4.484703000 3 # 11
     6.260000000      0.000000000      4.484703000 3 # 12
     1.565000000     -0.903553000      5.125375000 2 # 13
     4.695000000     -0.903553000      5.125375000 2 # 14
     7.825000000     -0.903553000      5.125375000 2 # 15
     1.565000000     -0.903553000      7.047391000 3 # 16
     4.695000000     -0.903553000      7.047391000 3 # 17
     7.825000000     -0.903553000      7.047391000 3 # 18
     3.130000000     -1.807106000      7.688062000 2 # 19
     6.260000000     -1.807106000      7.688062000 2 # 20
     9.390000000     -1.807106000      7.688062000 2 # 21
     3.130000000     -1.807106000      9.610078000 3 # 22
     6.260000000     -1.807106000      9.610078000 3 # 23
     9.390000000     -1.807106000      9.610078000 3 # 24
     1.565000000     -0.903553000     10.250750000 2 # 25
     4.695000000     -0.903553000     10.250750000 2 # 26
     7.825000000     -0.903553000     10.250750000 2 # 27
     1.565000000     -0.903553000     12.172766000 3 # 28
     4.695000000     -0.903553000     12.172766000 3 # 29
     7.825000000     -0.903553000     12.172766000 3 # 30
     0.000000000      0.000000000     12.813437000 2 # 31
     3.130000000      0.000000000     12.813437000 2 # 32
     6.260000000      0.000000000     12.813437000 2 # 33
     0.000000000      0.000000000     14.735453000 3 # 34
     3.130000000      0.000000000     14.735453000 3 # 35
     6.260000000      0.000000000     14.735453000 3 # 36
     1.565000000     -0.903553000     15.376125000 2 # 37
     4.695000000     -0.903553000     15.376125000 2 # 38
     7.825000000     -0.903553000     15.376125000 2 # 39
     1.565000000     -0.903553000     17.298141000 3 # 40
     4.695000000     -0.903553000     17.298141000 3 # 41
     7.825000000     -0.903553000     17.298141000 3 # 42
     3.130000000     -1.807106000     17.938812000 2 # 43
     6.260000000     -1.807106000     17.938812000 2 # 44
     9.390000000     -1.807106000     17.938812000 2 # 45
     3.131007652     -1.807412370     19.863585225 3 # 46
     9.389399792     -1.807424869     19.863614108 3 # 47
     6.260252296     -1.808874860     19.863660987 3 # 48
     4.699144270     -0.902138561     20.497831677 2 # 49
     7.821309262     -0.902130819     20.497932685 2 # 50
     1.565299798     -0.908942999     20.498008591 2 # 51
     4.668319102     -0.920098349     22.428844906 3 # 52
     7.852491795     -0.920227343     22.428980774 3 # 53
     1.565639318     -0.873478991     22.429243474 3 # 54
     6.260398295     -0.001215079     22.832034827 2 # 55
     3.130578414     -0.000878759     23.094994554 2 # 56
     0.000568491     -0.000869598     23.094405474 2 # 57
     0.001033880      0.001291339     25.110215448 1 # 58
     3.131011143      0.001305355     25.113388960 1 # 59
     0.813878120      1.405206919     25.405487042 1 # 60
    -1.621215716      0.003342190     25.405846617 1 # 61
     0.810470866     -1.404501171     25.406108484 1 # 62
     2.317825172      1.405923891     25.407637615 1 # 63
     4.753991996      0.003321302     25.407721144 1 # 64
     2.321097368     -1.405131019     25.408285842 1 # 65
     0.000216385     -0.000080551     28.644403564 1 # 66
     3.912395656      1.354731331     28.643981699 1 # 67
     1.565854162     -0.000090293     28.643986171 1 # 68
     3.912414249     -1.354885822     28.643994417 1 # 69
     2.347512497      1.355382095     28.645599803 1 # 70
     4.695413704      0.000034081     28.645613571 1 # 71
     2.347702955     -1.355645572     28.645641357 1 # 72
     6.260197526     -0.000065413     28.648248258 1 # 73
     0.000200000     -0.000058000     32.838389000 5 # 74
     0.000200000     -0.000058000     35.432389000 5 # 75
     0.000200000     -0.000058000     38.026389000 5 # 76
     0.000200000     -0.000058000     40.620389000 5 # 77
     0.000200000     -0.000058000     43.214389000 5 # 78
     0.000200000     -0.000058000     45.808389000 5 # 79
     0.000200000     -0.000058000     48.402389000 5 # 80
     0.000200000     -0.000058000     50.996389000 5 # 81
     0.000200000     -0.000058000     53.590389000 5 # 82
     0.000200000     -0.000058000     56.184389000 5 # 83
%endblock AtomicCoordinatesAndAtomicSpecies
