NumberOfAtoms 4
NumberOfSpecies 1
LatticeConstant 1.0 Ang
%block LatticeVectors
     4.695000000      2.710659514      0.000000000 
     4.695000000     -2.710659514      0.000000000 
     0.000000000      0.000000000     10.376000000 
%endblock LatticeVectors
AtomicCoordinatesFormat  Ang
%block AtomicCoordinatesAndAtomicSpecies
     0.000200000     -0.000058000     35.432389000 1 # 1
     0.000200000     -0.000058000     38.026389000 1 # 2
     0.000200000     -0.000058000     40.620389000 1 # 3
     0.000200000     -0.000058000     43.214389000 1 # 4
%endblock AtomicCoordinatesAndAtomicSpecies
