NumberOfAtoms 166
NumberOfSpecies 5
LatticeConstant 1.0 Ang
%block LatticeVectors
     4.695000000      2.710659514      0.000000000 
     4.695000000     -2.710659514      0.000000000 
     0.000000000      0.000000000     70.434701000 
%endblock LatticeVectors
AtomicCoordinatesFormat  Ang
%block AtomicCoordinatesAndAtomicSpecies
     1.565000000     -0.903553000      0.760016000 4
     4.695000000     -0.903553000      0.760016000 4
     7.825000000     -0.903553000      0.760016000 4
     1.565000000     -0.903553000      1.922016000 3
     4.695000000     -0.903553000      1.922016000 3
     7.825000000     -0.903553000      1.922016000 3
     0.000000000      0.000000000      2.562687000 2
     3.130000000      0.000000000      2.562687000 2
     6.260000000      0.000000000      2.562687000 2
     0.000000000      0.000000000      4.484703000 3
     3.130000000      0.000000000      4.484703000 3
     6.260000000      0.000000000      4.484703000 3
     1.565000000     -0.903553000      5.125375000 2
     4.695000000     -0.903553000      5.125375000 2
     7.825000000     -0.903553000      5.125375000 2
     1.565000000     -0.903553000      7.047391000 3
     4.695000000     -0.903553000      7.047391000 3
     7.825000000     -0.903553000      7.047391000 3
     3.130000000     -1.807106000      7.688062000 2
     6.260000000     -1.807106000      7.688062000 2
     9.390000000     -1.807106000      7.688062000 2
     3.130000000     -1.807106000      9.610078000 3
     6.260000000     -1.807106000      9.610078000 3
     9.390000000     -1.807106000      9.610078000 3
     1.565000000     -0.903553000     10.250750000 2
     4.695000000     -0.903553000     10.250750000 2
     7.825000000     -0.903553000     10.250750000 2
     1.565000000     -0.903553000     12.172766000 3
     4.695000000     -0.903553000     12.172766000 3
     7.825000000     -0.903553000     12.172766000 3
     0.000000000      0.000000000     12.813437000 2
     3.130000000      0.000000000     12.813437000 2
     6.260000000      0.000000000     12.813437000 2
     0.000000000      0.000000000     14.735453000 3
     3.130000000      0.000000000     14.735453000 3
     6.260000000      0.000000000     14.735453000 3
     1.565000000     -0.903553000     15.376125000 2
     4.695000000     -0.903553000     15.376125000 2
     7.825000000     -0.903553000     15.376125000 2
     1.565000000     -0.903553000     17.298141000 3
     4.695000000     -0.903553000     17.298141000 3
     7.825000000     -0.903553000     17.298141000 3
     3.130000000     -1.807106000     17.938812000 2
     6.260000000     -1.807106000     17.938812000 2
     9.390000000     -1.807106000     17.938812000 2
     3.130982012     -1.807408839     19.863495219 3
     9.389434128     -1.807424040     19.863518048 3
     6.260246907     -1.808860927     19.863575112 3
     4.699011632     -0.902184003     20.497775316 2
     7.821436587     -0.902183716     20.497834855 2
     1.565292765     -0.908863568     20.498066433 2
     4.668230593     -0.920094028     22.428534143 3
     7.852542820     -0.920235560     22.428655651 3
     1.565583070     -0.873421466     22.428987991 3
     6.260382574     -0.001219913     22.832860444 2
     3.130491848     -0.000810450     23.094734939 2
     0.000485899     -0.000803489     23.094194863 2
     0.000993228      0.001282088     25.110161793 1
     3.130999319      0.001275140     25.113245543 1
     0.813775145      1.405099698     25.405548997 1
    -1.621098674      0.003293605     25.405915749 1
     0.810437044     -1.404382187     25.406203262 1
     2.317906449      1.405825077     25.407600896 1
     4.753896286      0.003288746     25.407709658 1
     2.321116938     -1.405038469     25.408257748 1
     0.000235118     -0.000086758     28.638278801 1
     3.912625331      1.355093676     28.642476347 1
     1.565433020     -0.000102438     28.642483190 1
     3.912660545     -1.355239698     28.642490745 1
     2.347753320      1.354982266     28.647149682 1
     4.694954213      0.000029296     28.647161207 1
     2.347947273     -1.355237796     28.647189724 1
     6.260208966     -0.000065407     28.654524455 1
     6.260199000     -0.000083000     32.848717000 5
     6.260199000     -0.000083000     35.442717000 5
     6.260199000     -0.000083000     38.036717000 5
     6.260199000     -0.000083000     40.630717000 5
     6.260199000     -0.000083000     43.224717000 5
     6.260199000     -0.000083000     45.818717000 5
     6.260199000     -0.000083000     48.412717000 5
     6.260199000     -0.000083000     51.006717000 5
     6.260199000     -0.000083000     53.600717000 5
     6.260199000     -0.000083000     56.194717000 5
     1.545000000     -0.903553000      0.760016000 4
     4.675000000     -0.903553000      0.760016000 4
     7.805000000     -0.903553000      0.760016000 4
     1.545000000     -0.903553000      1.922016000 3
     4.675000000     -0.903553000      1.922016000 3
     7.805000000     -0.903553000      1.922016000 3
    -0.020000000      0.000000000      2.562687000 2
     3.110000000      0.000000000      2.562687000 2
     6.240000000      0.000000000      2.562687000 2
    -0.020000000      0.000000000      4.484703000 3
     3.110000000      0.000000000      4.484703000 3
     6.240000000      0.000000000      4.484703000 3
     1.545000000     -0.903553000      5.125375000 2
     4.675000000     -0.903553000      5.125375000 2
     7.805000000     -0.903553000      5.125375000 2
     1.545000000     -0.903553000      7.047391000 3
     4.675000000     -0.903553000      7.047391000 3
     7.805000000     -0.903553000      7.047391000 3
     3.110000000     -1.807106000      7.688062000 2
     6.240000000     -1.807106000      7.688062000 2
     9.370000000     -1.807106000      7.688062000 2
     3.110000000     -1.807106000      9.610078000 3
     6.240000000     -1.807106000      9.610078000 3
     9.370000000     -1.807106000      9.610078000 3
     1.545000000     -0.903553000     10.250750000 2
     4.675000000     -0.903553000     10.250750000 2
     7.805000000     -0.903553000     10.250750000 2
     1.545000000     -0.903553000     12.172766000 3
     4.675000000     -0.903553000     12.172766000 3
     7.805000000     -0.903553000     12.172766000 3
    -0.020000000      0.000000000     12.813437000 2
     3.110000000      0.000000000     12.813437000 2
     6.240000000      0.000000000     12.813437000 2
    -0.020000000      0.000000000     14.735453000 3
     3.110000000      0.000000000     14.735453000 3
     6.240000000      0.000000000     14.735453000 3
     1.545000000     -0.903553000     15.376125000 2
     4.675000000     -0.903553000     15.376125000 2
     7.805000000     -0.903553000     15.376125000 2
     1.545000000     -0.903553000     17.298141000 3
     4.675000000     -0.903553000     17.298141000 3
     7.805000000     -0.903553000     17.298141000 3
     3.110000000     -1.807106000     17.938812000 2
     6.240000000     -1.807106000     17.938812000 2
     9.370000000     -1.807106000     17.938812000 2
     3.110982012     -1.807408839     19.863495219 3
     9.369434128     -1.807424040     19.863518048 3
     6.240246907     -1.808860927     19.863575112 3
     4.679011632     -0.902184003     20.497775316 2
     7.801436587     -0.902183716     20.497834855 2
     1.545292765     -0.908863568     20.498066433 2
     4.648230593     -0.920094028     22.428534143 3
     7.832542820     -0.920235560     22.428655651 3
     1.545583070     -0.873421466     22.428987991 3
     6.240382574     -0.001219913     22.832860444 2
     3.110491848     -0.000810450     23.094734939 2
    -0.019514101     -0.000803489     23.094194863 2
    -0.019006772      0.001282088     25.110161793 1
     3.110999319      0.001275140     25.113245543 1
     0.793775145      1.405099698     25.405548997 1
    -1.641098674      0.003293605     25.405915749 1
     0.790437044     -1.404382187     25.406203262 1
     2.297906449      1.405825077     25.407600896 1
     4.733896286      0.003288746     25.407709658 1
     2.301116938     -1.405038469     25.408257748 1
    -0.019764882     -0.000086758     28.638278801 1
     3.892625331      1.355093676     28.642476347 1
     1.545433020     -0.000102438     28.642483190 1
     3.892660545     -1.355239698     28.642490745 1
     2.327753320      1.354982266     28.647149682 1
     4.674954213      0.000029296     28.647161207 1
     2.327947273     -1.355237796     28.647189724 1
     6.240208966     -0.000065407     28.654524455 1
     6.240199000     -0.000083000     32.848717000 5
     6.240199000     -0.000083000     35.442717000 5
     6.240199000     -0.000083000     38.036717000 5
     6.240199000     -0.000083000     40.630717000 5
     6.240199000     -0.000083000     43.224717000 5
     6.240199000     -0.000083000     45.818717000 5
     6.240199000     -0.000083000     48.412717000 5
     6.240199000     -0.000083000     51.006717000 5
     6.240199000     -0.000083000     53.600717000 5
     6.240199000     -0.000083000     56.194717000 5
%endblock AtomicCoordinatesAndAtomicSpecies
