NumberOfAtoms 166
NumberOfSpecies 5
LatticeConstant 1.0 Ang
%block LatticeVectors
     4.695000000      2.710659514      0.000000000 
     4.695000000     -2.710659514      0.000000000 
     0.000000000      0.000000000     70.434701000 
%endblock LatticeVectors
AtomicCoordinatesFormat  Ang
%block AtomicCoordinatesAndAtomicSpecies
     1.565000000     -0.903553000      0.760016000 4
     4.695000000     -0.903553000      0.760016000 4
     7.825000000     -0.903553000      0.760016000 4
     1.565000000     -0.903553000      1.922016000 3
     4.695000000     -0.903553000      1.922016000 3
     7.825000000     -0.903553000      1.922016000 3
     0.000000000      0.000000000      2.562687000 2
     3.130000000      0.000000000      2.562687000 2
     6.260000000      0.000000000      2.562687000 2
     0.000000000      0.000000000      4.484703000 3
     3.130000000      0.000000000      4.484703000 3
     6.260000000      0.000000000      4.484703000 3
     1.565000000     -0.903553000      5.125375000 2
     4.695000000     -0.903553000      5.125375000 2
     7.825000000     -0.903553000      5.125375000 2
     1.565000000     -0.903553000      7.047391000 3
     4.695000000     -0.903553000      7.047391000 3
     7.825000000     -0.903553000      7.047391000 3
     3.130000000     -1.807106000      7.688062000 2
     6.260000000     -1.807106000      7.688062000 2
     9.390000000     -1.807106000      7.688062000 2
     3.130000000     -1.807106000      9.610078000 3
     6.260000000     -1.807106000      9.610078000 3
     9.390000000     -1.807106000      9.610078000 3
     1.565000000     -0.903553000     10.250750000 2
     4.695000000     -0.903553000     10.250750000 2
     7.825000000     -0.903553000     10.250750000 2
     1.565000000     -0.903553000     12.172766000 3
     4.695000000     -0.903553000     12.172766000 3
     7.825000000     -0.903553000     12.172766000 3
     0.000000000      0.000000000     12.813437000 2
     3.130000000      0.000000000     12.813437000 2
     6.260000000      0.000000000     12.813437000 2
     0.000000000      0.000000000     14.735453000 3
     3.130000000      0.000000000     14.735453000 3
     6.260000000      0.000000000     14.735453000 3
     1.565000000     -0.903553000     15.376125000 2
     4.695000000     -0.903553000     15.376125000 2
     7.825000000     -0.903553000     15.376125000 2
     1.565000000     -0.903553000     17.298141000 3
     4.695000000     -0.903553000     17.298141000 3
     7.825000000     -0.903553000     17.298141000 3
     3.130000000     -1.807106000     17.938812000 2
     6.260000000     -1.807106000     17.938812000 2
     9.390000000     -1.807106000     17.938812000 2
     3.130982012     -1.807408839     19.863495219 3
     9.389434128     -1.807424040     19.863518048 3
     6.260246907     -1.808860927     19.863575112 3
     4.699011632     -0.902184003     20.497775316 2
     7.821436587     -0.902183716     20.497834855 2
     1.565292765     -0.908863568     20.498066433 2
     4.668230593     -0.920094028     22.428534143 3
     7.852542820     -0.920235560     22.428655651 3
     1.565583070     -0.873421466     22.428987991 3
     6.260382574     -0.001219913     22.832860444 2
     3.130491848     -0.000810450     23.094734939 2
     0.000485899     -0.000803489     23.094194863 2
     0.000993228      0.001282088     25.110161793 1
     3.130999319      0.001275140     25.113245543 1
     0.813775145      1.405099698     25.405548997 1
    -1.621098674      0.003293605     25.405915749 1
     0.810437044     -1.404382187     25.406203262 1
     2.317906449      1.405825077     25.407600896 1
     4.753896286      0.003288746     25.407709658 1
     2.321116938     -1.405038469     25.408257748 1
     0.000235118     -0.000086758     28.638278801 1
     3.912625331      1.355093676     28.642476347 1
     1.565433020     -0.000102438     28.642483190 1
     3.912660545     -1.355239698     28.642490745 1
     2.347753320      1.354982266     28.647149682 1
     4.694954213      0.000029296     28.647161207 1
     2.347947273     -1.355237796     28.647189724 1
     6.260208966     -0.000065407     28.654524455 1
     6.260199000     -0.000083000     32.848717000 5
     6.260199000     -0.000083000     35.442717000 5
     6.260199000     -0.000083000     38.036717000 5
     6.260199000     -0.000083000     40.630717000 5
     6.260199000     -0.000083000     43.224717000 5
     6.260199000     -0.000083000     45.818717000 5
     6.260199000     -0.000083000     48.412717000 5
     6.260199000     -0.000083000     51.006717000 5
     6.260199000     -0.000083000     53.600717000 5
     6.260199000     -0.000083000     56.194717000 5
     1.565000000     -0.903553000      0.780016000 4
     4.695000000     -0.903553000      0.780016000 4
     7.825000000     -0.903553000      0.780016000 4
     1.565000000     -0.903553000      1.942016000 3
     4.695000000     -0.903553000      1.942016000 3
     7.825000000     -0.903553000      1.942016000 3
     0.000000000      0.000000000      2.582687000 2
     3.130000000      0.000000000      2.582687000 2
     6.260000000      0.000000000      2.582687000 2
     0.000000000      0.000000000      4.504703000 3
     3.130000000      0.000000000      4.504703000 3
     6.260000000      0.000000000      4.504703000 3
     1.565000000     -0.903553000      5.145375000 2
     4.695000000     -0.903553000      5.145375000 2
     7.825000000     -0.903553000      5.145375000 2
     1.565000000     -0.903553000      7.067391000 3
     4.695000000     -0.903553000      7.067391000 3
     7.825000000     -0.903553000      7.067391000 3
     3.130000000     -1.807106000      7.708062000 2
     6.260000000     -1.807106000      7.708062000 2
     9.390000000     -1.807106000      7.708062000 2
     3.130000000     -1.807106000      9.630078000 3
     6.260000000     -1.807106000      9.630078000 3
     9.390000000     -1.807106000      9.630078000 3
     1.565000000     -0.903553000     10.270750000 2
     4.695000000     -0.903553000     10.270750000 2
     7.825000000     -0.903553000     10.270750000 2
     1.565000000     -0.903553000     12.192766000 3
     4.695000000     -0.903553000     12.192766000 3
     7.825000000     -0.903553000     12.192766000 3
     0.000000000      0.000000000     12.833437000 2
     3.130000000      0.000000000     12.833437000 2
     6.260000000      0.000000000     12.833437000 2
     0.000000000      0.000000000     14.755453000 3
     3.130000000      0.000000000     14.755453000 3
     6.260000000      0.000000000     14.755453000 3
     1.565000000     -0.903553000     15.396125000 2
     4.695000000     -0.903553000     15.396125000 2
     7.825000000     -0.903553000     15.396125000 2
     1.565000000     -0.903553000     17.318141000 3
     4.695000000     -0.903553000     17.318141000 3
     7.825000000     -0.903553000     17.318141000 3
     3.130000000     -1.807106000     17.958812000 2
     6.260000000     -1.807106000     17.958812000 2
     9.390000000     -1.807106000     17.958812000 2
     3.130982012     -1.807408839     19.883495219 3
     9.389434128     -1.807424040     19.883518048 3
     6.260246907     -1.808860927     19.883575112 3
     4.699011632     -0.902184003     20.517775316 2
     7.821436587     -0.902183716     20.517834855 2
     1.565292765     -0.908863568     20.518066433 2
     4.668230593     -0.920094028     22.448534143 3
     7.852542820     -0.920235560     22.448655651 3
     1.565583070     -0.873421466     22.448987991 3
     6.260382574     -0.001219913     22.852860444 2
     3.130491848     -0.000810450     23.114734939 2
     0.000485899     -0.000803489     23.114194863 2
     0.000993228      0.001282088     25.130161793 1
     3.130999319      0.001275140     25.133245543 1
     0.813775145      1.405099698     25.425548997 1
    -1.621098674      0.003293605     25.425915749 1
     0.810437044     -1.404382187     25.426203262 1
     2.317906449      1.405825077     25.427600896 1
     4.753896286      0.003288746     25.427709658 1
     2.321116938     -1.405038469     25.428257748 1
     0.000235118     -0.000086758     28.658278801 1
     3.912625331      1.355093676     28.662476347 1
     1.565433020     -0.000102438     28.662483190 1
     3.912660545     -1.355239698     28.662490745 1
     2.347753320      1.354982266     28.667149682 1
     4.694954213      0.000029296     28.667161207 1
     2.347947273     -1.355237796     28.667189724 1
     6.260208966     -0.000065407     28.674524455 1
     6.260199000     -0.000083000     32.868717000 5
     6.260199000     -0.000083000     35.462717000 5
     6.260199000     -0.000083000     38.056717000 5
     6.260199000     -0.000083000     40.650717000 5
     6.260199000     -0.000083000     43.244717000 5
     6.260199000     -0.000083000     45.838717000 5
     6.260199000     -0.000083000     48.432717000 5
     6.260199000     -0.000083000     51.026717000 5
     6.260199000     -0.000083000     53.620717000 5
     6.260199000     -0.000083000     56.214717000 5
%endblock AtomicCoordinatesAndAtomicSpecies
