NumberOfAtoms 432
NumberOfSpecies 2
LatticeConstant 1.0 Ang
%block LatticeVectors
 0.     16.92  16.92 
 16.92   0.    16.92
 16.92  16.92   0.
%endblock LatticeVectors
AtomicCoordinatesFormat  Ang
%block AtomicCoordinatesAndAtomicSpecies
0.000000 0.000000 0.000000 1
0.000000 0.000000 2.820000 2
0.000000 2.820000 2.820000 1
0.000000 2.820000 5.640000 2
0.000000 5.640000 5.640000 1
0.000000 5.640000 8.460000 2
0.000000 8.460000 8.460000 1
0.000000 8.460000 11.280000 2
0.000000 11.280000 11.280000 1
0.000000 11.280000 14.100000 2
0.000000 14.100000 14.100000 1
0.000000 14.100000 16.920000 2
2.820000 0.000000 2.820000 1
2.820000 0.000000 5.640000 2
2.820000 2.820000 5.640000 1
2.820000 2.820000 8.460000 2
2.820000 5.640000 8.460000 1
2.820000 5.640000 11.280000 2
2.820000 8.460000 11.280000 1
2.820000 8.460000 14.100000 2
2.820000 11.280000 14.100000 1
2.820000 11.280000 16.920000 2
2.820000 14.100000 16.920000 1
2.820000 14.100000 19.740000 2
5.640000 0.000000 5.640000 1
5.640000 0.000000 8.460000 2
5.640000 2.820000 8.460000 1
5.640000 2.820000 11.280000 2
5.640000 5.640000 11.280000 1
5.640000 5.640000 14.100000 2
5.640000 8.460000 14.100000 1
5.640000 8.460000 16.920000 2
5.640000 11.280000 16.920000 1
5.640000 11.280000 19.740000 2
5.640000 14.100000 19.740000 1
5.640000 14.100000 22.560000 2
8.460000 0.000000 8.460000 1
8.460000 0.000000 11.280000 2
8.460000 2.820000 11.280000 1
8.460000 2.820000 14.100000 2
8.460000 5.640000 14.100000 1
8.460000 5.640000 16.920000 2
8.460000 8.460000 16.920000 1
8.460000 8.460000 19.740000 2
8.460000 11.280000 19.740000 1
8.460000 11.280000 22.560000 2
8.460000 14.100000 22.560000 1
8.460000 14.100000 25.380000 2
11.280000 0.000000 11.280000 1
11.280000 0.000000 14.100000 2
11.280000 2.820000 14.100000 1
11.280000 2.820000 16.920000 2
11.280000 5.640000 16.920000 1
11.280000 5.640000 19.740000 2
11.280000 8.460000 19.740000 1
11.280000 8.460000 22.560000 2
11.280000 11.280000 22.560000 1
11.280000 11.280000 25.380000 2
11.280000 14.100000 25.380000 1
11.280000 14.100000 28.200000 2
14.100000 0.000000 14.100000 1
14.100000 0.000000 16.920000 2
14.100000 2.820000 16.920000 1
14.100000 2.820000 19.740000 2
14.100000 5.640000 19.740000 1
14.100000 5.640000 22.560000 2
14.100000 8.460000 22.560000 1
14.100000 8.460000 25.380000 2
14.100000 11.280000 25.380000 1
14.100000 11.280000 28.200000 2
14.100000 14.100000 28.200000 1
14.100000 14.100000 31.020000 2
2.820000 2.820000 0.000000 1
2.820000 2.820000 2.820000 2
2.820000 5.640000 2.820000 1
2.820000 5.640000 5.640000 2
2.820000 8.460000 5.640000 1
2.820000 8.460000 8.460000 2
2.820000 11.280000 8.460000 1
2.820000 11.280000 11.280000 2
2.820000 14.100000 11.280000 1
2.820000 14.100000 14.100000 2
2.820000 16.920000 14.100000 1
2.820000 16.920000 16.920000 2
5.640000 2.820000 2.820000 1
5.640000 2.820000 5.640000 2
5.640000 5.640000 5.640000 1
5.640000 5.640000 8.460000 2
5.640000 8.460000 8.460000 1
5.640000 8.460000 11.280000 2
5.640000 11.280000 11.280000 1
5.640000 11.280000 14.100000 2
5.640000 14.100000 14.100000 1
5.640000 14.100000 16.920000 2
5.640000 16.920000 16.920000 1
5.640000 16.920000 19.740000 2
8.460000 2.820000 5.640000 1
8.460000 2.820000 8.460000 2
8.460000 5.640000 8.460000 1
8.460000 5.640000 11.280000 2
8.460000 8.460000 11.280000 1
8.460000 8.460000 14.100000 2
8.460000 11.280000 14.100000 1
8.460000 11.280000 16.920000 2
8.460000 14.100000 16.920000 1
8.460000 14.100000 19.740000 2
8.460000 16.920000 19.740000 1
8.460000 16.920000 22.560000 2
11.280000 2.820000 8.460000 1
11.280000 2.820000 11.280000 2
11.280000 5.640000 11.280000 1
11.280000 5.640000 14.100000 2
11.280000 8.460000 14.100000 1
11.280000 8.460000 16.920000 2
11.280000 11.280000 16.920000 1
11.280000 11.280000 19.740000 2
11.280000 14.100000 19.740000 1
11.280000 14.100000 22.560000 2
11.280000 16.920000 22.560000 1
11.280000 16.920000 25.380000 2
14.100000 2.820000 11.280000 1
14.100000 2.820000 14.100000 2
14.100000 5.640000 14.100000 1
14.100000 5.640000 16.920000 2
14.100000 8.460000 16.920000 1
14.100000 8.460000 19.740000 2
14.100000 11.280000 19.740000 1
14.100000 11.280000 22.560000 2
14.100000 14.100000 22.560000 1
14.100000 14.100000 25.380000 2
14.100000 16.920000 25.380000 1
14.100000 16.920000 28.200000 2
16.920000 2.820000 14.100000 1
16.920000 2.820000 16.920000 2
16.920000 5.640000 16.920000 1
16.920000 5.640000 19.740000 2
16.920000 8.460000 19.740000 1
16.920000 8.460000 22.560000 2
16.920000 11.280000 22.560000 1
16.920000 11.280000 25.380000 2
16.920000 14.100000 25.380000 1
16.920000 14.100000 28.200000 2
16.920000 16.920000 28.200000 1
16.920000 16.920000 31.020000 2
5.640000 5.640000 0.000000 1
5.640000 5.640000 2.820000 2
5.640000 8.460000 2.820000 1
5.640000 8.460000 5.640000 2
5.640000 11.280000 5.640000 1
5.640000 11.280000 8.460000 2
5.640000 14.100000 8.460000 1
5.640000 14.100000 11.280000 2
5.640000 16.920000 11.280000 1
5.640000 16.920000 14.100000 2
5.640000 19.740000 14.100000 1
5.640000 19.740000 16.920000 2
8.460000 5.640000 2.820000 1
8.460000 5.640000 5.640000 2
8.460000 8.460000 5.640000 1
8.460000 8.460000 8.460000 2
8.460000 11.280000 8.460000 1
8.460000 11.280000 11.280000 2
8.460000 14.100000 11.280000 1
8.460000 14.100000 14.100000 2
8.460000 16.920000 14.100000 1
8.460000 16.920000 16.920000 2
8.460000 19.740000 16.920000 1
8.460000 19.740000 19.740000 2
11.280000 5.640000 5.640000 1
11.280000 5.640000 8.460000 2
11.280000 8.460000 8.460000 1
11.280000 8.460000 11.280000 2
11.280000 11.280000 11.280000 1
11.280000 11.280000 14.100000 2
11.280000 14.100000 14.100000 1
11.280000 14.100000 16.920000 2
11.280000 16.920000 16.920000 1
11.280000 16.920000 19.740000 2
11.280000 19.740000 19.740000 1
11.280000 19.740000 22.560000 2
14.100000 5.640000 8.460000 1
14.100000 5.640000 11.280000 2
14.100000 8.460000 11.280000 1
14.100000 8.460000 14.100000 2
14.100000 11.280000 14.100000 1
14.100000 11.280000 16.920000 2
14.100000 14.100000 16.920000 1
14.100000 14.100000 19.740000 2
14.100000 16.920000 19.740000 1
14.100000 16.920000 22.560000 2
14.100000 19.740000 22.560000 1
14.100000 19.740000 25.380000 2
16.920000 5.640000 11.280000 1
16.920000 5.640000 14.100000 2
16.920000 8.460000 14.100000 1
16.920000 8.460000 16.920000 2
16.920000 11.280000 16.920000 1
16.920000 11.280000 19.740000 2
16.920000 14.100000 19.740000 1
16.920000 14.100000 22.560000 2
16.920000 16.920000 22.560000 1
16.920000 16.920000 25.380000 2
16.920000 19.740000 25.380000 1
16.920000 19.740000 28.200000 2
19.740000 5.640000 14.100000 1
19.740000 5.640000 16.920000 2
19.740000 8.460000 16.920000 1
19.740000 8.460000 19.740000 2
19.740000 11.280000 19.740000 1
19.740000 11.280000 22.560000 2
19.740000 14.100000 22.560000 1
19.740000 14.100000 25.380000 2
19.740000 16.920000 25.380000 1
19.740000 16.920000 28.200000 2
19.740000 19.740000 28.200000 1
19.740000 19.740000 31.020000 2
8.460000 8.460000 0.000000 1
8.460000 8.460000 2.820000 2
8.460000 11.280000 2.820000 1
8.460000 11.280000 5.640000 2
8.460000 14.100000 5.640000 1
8.460000 14.100000 8.460000 2
8.460000 16.920000 8.460000 1
8.460000 16.920000 11.280000 2
8.460000 19.740000 11.280000 1
8.460000 19.740000 14.100000 2
8.460000 22.560000 14.100000 1
8.460000 22.560000 16.920000 2
11.280000 8.460000 2.820000 1
11.280000 8.460000 5.640000 2
11.280000 11.280000 5.640000 1
11.280000 11.280000 8.460000 2
11.280000 14.100000 8.460000 1
11.280000 14.100000 11.280000 2
11.280000 16.920000 11.280000 1
11.280000 16.920000 14.100000 2
11.280000 19.740000 14.100000 1
11.280000 19.740000 16.920000 2
11.280000 22.560000 16.920000 1
11.280000 22.560000 19.740000 2
14.100000 8.460000 5.640000 1
14.100000 8.460000 8.460000 2
14.100000 11.280000 8.460000 1
14.100000 11.280000 11.280000 2
14.100000 14.100000 11.280000 1
14.100000 14.100000 14.100000 2
14.100000 16.920000 14.100000 1
14.100000 16.920000 16.920000 2
14.100000 19.740000 16.920000 1
14.100000 19.740000 19.740000 2
14.100000 22.560000 19.740000 1
14.100000 22.560000 22.560000 2
16.920000 8.460000 8.460000 1
16.920000 8.460000 11.280000 2
16.920000 11.280000 11.280000 1
16.920000 11.280000 14.100000 2
16.920000 14.100000 14.100000 1
16.920000 14.100000 16.920000 2
16.920000 16.920000 16.920000 1
16.920000 16.920000 19.740000 2
16.920000 19.740000 19.740000 1
16.920000 19.740000 22.560000 2
16.920000 22.560000 22.560000 1
16.920000 22.560000 25.380000 2
19.740000 8.460000 11.280000 1
19.740000 8.460000 14.100000 2
19.740000 11.280000 14.100000 1
19.740000 11.280000 16.920000 2
19.740000 14.100000 16.920000 1
19.740000 14.100000 19.740000 2
19.740000 16.920000 19.740000 1
19.740000 16.920000 22.560000 2
19.740000 19.740000 22.560000 1
19.740000 19.740000 25.380000 2
19.740000 22.560000 25.380000 1
19.740000 22.560000 28.200000 2
22.560000 8.460000 14.100000 1
22.560000 8.460000 16.920000 2
22.560000 11.280000 16.920000 1
22.560000 11.280000 19.740000 2
22.560000 14.100000 19.740000 1
22.560000 14.100000 22.560000 2
22.560000 16.920000 22.560000 1
22.560000 16.920000 25.380000 2
22.560000 19.740000 25.380000 1
22.560000 19.740000 28.200000 2
22.560000 22.560000 28.200000 1
22.560000 22.560000 31.020000 2
11.280000 11.280000 0.000000 1
11.280000 11.280000 2.820000 2
11.280000 14.100000 2.820000 1
11.280000 14.100000 5.640000 2
11.280000 16.920000 5.640000 1
11.280000 16.920000 8.460000 2
11.280000 19.740000 8.460000 1
11.280000 19.740000 11.280000 2
11.280000 22.560000 11.280000 1
11.280000 22.560000 14.100000 2
11.280000 25.380000 14.100000 1
11.280000 25.380000 16.920000 2
14.100000 11.280000 2.820000 1
14.100000 11.280000 5.640000 2
14.100000 14.100000 5.640000 1
14.100000 14.100000 8.460000 2
14.100000 16.920000 8.460000 1
14.100000 16.920000 11.280000 2
14.100000 19.740000 11.280000 1
14.100000 19.740000 14.100000 2
14.100000 22.560000 14.100000 1
14.100000 22.560000 16.920000 2
14.100000 25.380000 16.920000 1
14.100000 25.380000 19.740000 2
16.920000 11.280000 5.640000 1
16.920000 11.280000 8.460000 2
16.920000 14.100000 8.460000 1
16.920000 14.100000 11.280000 2
16.920000 16.920000 11.280000 1
16.920000 16.920000 14.100000 2
16.920000 19.740000 14.100000 1
16.920000 19.740000 16.920000 2
16.920000 22.560000 16.920000 1
16.920000 22.560000 19.740000 2
16.920000 25.380000 19.740000 1
16.920000 25.380000 22.560000 2
19.740000 11.280000 8.460000 1
19.740000 11.280000 11.280000 2
19.740000 14.100000 11.280000 1
19.740000 14.100000 14.100000 2
19.740000 16.920000 14.100000 1
19.740000 16.920000 16.920000 2
19.740000 19.740000 16.920000 1
19.740000 19.740000 19.740000 2
19.740000 22.560000 19.740000 1
19.740000 22.560000 22.560000 2
19.740000 25.380000 22.560000 1
19.740000 25.380000 25.380000 2
22.560000 11.280000 11.280000 1
22.560000 11.280000 14.100000 2
22.560000 14.100000 14.100000 1
22.560000 14.100000 16.920000 2
22.560000 16.920000 16.920000 1
22.560000 16.920000 19.740000 2
22.560000 19.740000 19.740000 1
22.560000 19.740000 22.560000 2
22.560000 22.560000 22.560000 1
22.560000 22.560000 25.380000 2
22.560000 25.380000 25.380000 1
22.560000 25.380000 28.200000 2
25.380000 11.280000 14.100000 1
25.380000 11.280000 16.920000 2
25.380000 14.100000 16.920000 1
25.380000 14.100000 19.740000 2
25.380000 16.920000 19.740000 1
25.380000 16.920000 22.560000 2
25.380000 19.740000 22.560000 1
25.380000 19.740000 25.380000 2
25.380000 22.560000 25.380000 1
25.380000 22.560000 28.200000 2
25.380000 25.380000 28.200000 1
25.380000 25.380000 31.020000 2
14.100000 14.100000 0.000000 1
14.100000 14.100000 2.820000 2
14.100000 16.920000 2.820000 1
14.100000 16.920000 5.640000 2
14.100000 19.740000 5.640000 1
14.100000 19.740000 8.460000 2
14.100000 22.560000 8.460000 1
14.100000 22.560000 11.280000 2
14.100000 25.380000 11.280000 1
14.100000 25.380000 14.100000 2
14.100000 28.200000 14.100000 1
14.100000 28.200000 16.920000 2
16.920000 14.100000 2.820000 1
16.920000 14.100000 5.640000 2
16.920000 16.920000 5.640000 1
16.920000 16.920000 8.460000 2
16.920000 19.740000 8.460000 1
16.920000 19.740000 11.280000 2
16.920000 22.560000 11.280000 1
16.920000 22.560000 14.100000 2
16.920000 25.380000 14.100000 1
16.920000 25.380000 16.920000 2
16.920000 28.200000 16.920000 1
16.920000 28.200000 19.740000 2
19.740000 14.100000 5.640000 1
19.740000 14.100000 8.460000 2
19.740000 16.920000 8.460000 1
19.740000 16.920000 11.280000 2
19.740000 19.740000 11.280000 1
19.740000 19.740000 14.100000 2
19.740000 22.560000 14.100000 1
19.740000 22.560000 16.920000 2
19.740000 25.380000 16.920000 1
19.740000 25.380000 19.740000 2
19.740000 28.200000 19.740000 1
19.740000 28.200000 22.560000 2
22.560000 14.100000 8.460000 1
22.560000 14.100000 11.280000 2
22.560000 16.920000 11.280000 1
22.560000 16.920000 14.100000 2
22.560000 19.740000 14.100000 1
22.560000 19.740000 16.920000 2
22.560000 22.560000 16.920000 1
22.560000 22.560000 19.740000 2
22.560000 25.380000 19.740000 1
22.560000 25.380000 22.560000 2
22.560000 28.200000 22.560000 1
22.560000 28.200000 25.380000 2
25.380000 14.100000 11.280000 1
25.380000 14.100000 14.100000 2
25.380000 16.920000 14.100000 1
25.380000 16.920000 16.920000 2
25.380000 19.740000 16.920000 1
25.380000 19.740000 19.740000 2
25.380000 22.560000 19.740000 1
25.380000 22.560000 22.560000 2
25.380000 25.380000 22.560000 1
25.380000 25.380000 25.380000 2
25.380000 28.200000 25.380000 1
25.380000 28.200000 28.200000 2
28.200000 14.100000 14.100000 1
28.200000 14.100000 16.920000 2
28.200000 16.920000 16.920000 1
28.200000 16.920000 19.740000 2
28.200000 19.740000 19.740000 1
28.200000 19.740000 22.560000 2
28.200000 22.560000 22.560000 1
28.200000 22.560000 25.380000 2
28.200000 25.380000 25.380000 1
28.200000 25.380000 28.200000 2
28.200000 28.200000 28.200000 1
28.200000 28.200000 31.020000 2
%endblock AtomicCoordinatesAndAtomicSpecies
