NumberOfAtoms 4
NumberOfSpecies 1
LatticeConstant 1.0 Ang
%block LatticeVectors
     9.000000000      0.000000000      0.000000000 
     0.000000000      9.000000000      0.000000000 
     0.000000000      0.000000000     10.160000000 
%endblock LatticeVectors
AtomicCoordinatesFormat  Ang
%block AtomicCoordinatesAndAtomicSpecies
     0.000000000      0.000000000      0.000000000 1 # 1
     0.000000000      0.000000000      2.540000000 1 # 2
     0.000000000      0.000000000      5.080000000 1 # 3
     0.000000000      0.000000000      7.620000000 1 # 4
%endblock AtomicCoordinatesAndAtomicSpecies
