NumberOfAtoms 24
NumberOfSpecies 2
LatticeConstant 1.0 Ang
%block LatticeVectors
     4.695000000      2.710659514      0.000000000 
     4.695000000     -2.710659514      0.000000000 
     0.000000000      0.000000000     10.250750000 
%endblock LatticeVectors
AtomicCoordinatesFormat  Ang
%block AtomicCoordinatesAndAtomicSpecies
     3.130000000     -1.807106343      0.000000000 1 # 1
     6.260000000     -1.807106343      0.000000000 1 # 2
     9.390000000     -1.807106343      0.000000000 1 # 3
     1.565000000     -0.903553171      0.640671875 2 # 4
     4.695000000     -0.903553171      0.640671875 2 # 5
     7.825000000     -0.903553171      0.640671875 2 # 6
     1.565000000     -0.903553171      2.562687500 1 # 7
     4.695000000     -0.903553171      2.562687500 1 # 8
     7.825000000     -0.903553171      2.562687500 1 # 9
     0.000000000      0.000000000      3.203359375 2 # 10
     3.130000000      0.000000000      3.203359375 2 # 11
     6.260000000      0.000000000      3.203359375 2 # 12
     0.000000000      0.000000000      5.125375000 1 # 13
     3.130000000      0.000000000      5.125375000 1 # 14
     6.260000000      0.000000000      5.125375000 1 # 15
     1.565000000     -0.903553171      5.766046875 2 # 16
     4.695000000     -0.903553171      5.766046875 2 # 17
     7.825000000     -0.903553171      5.766046875 2 # 18
     1.565000000     -0.903553171      7.688062500 1 # 19
     4.695000000     -0.903553171      7.688062500 1 # 20
     7.825000000     -0.903553171      7.688062500 1 # 21
     3.130000000     -1.807106343      8.328734375 2 # 22
     6.260000000     -1.807106343      8.328734375 2 # 23
     9.390000000     -1.807106343      8.328734375 2 # 24
%endblock AtomicCoordinatesAndAtomicSpecies
