NumberOfAtoms 159
NumberOfSpecies 3
LatticeConstant 1.0 Ang
%block LatticeVectors
     7.734164266      0.000000000      0.000000000 
     3.867082134      6.697982733      0.000000000 
     0.000000000      0.000000000     48.299457874 
%endblock LatticeVectors
AtomicCoordinatesFormat  Ang
%block AtomicCoordinatesAndAtomicSpecies
     1.289027378      0.744220304     -4.209945789 3
     3.867082133      0.744220304     -4.209945789 3
     6.445136889      0.744220304     -4.209945789 3
     2.578054756      2.976881214     -4.209945789 3
     5.156109511      2.976881214     -4.209945789 3
     7.734164267      2.976881214     -4.209945789 3
     3.867082133      5.209542125     -4.209945789 3
     6.445136889      5.209542125     -4.209945789 3
     9.023191645      5.209542125     -4.209945789 3
     2.578054756      1.488440607     -2.104972895 3
     5.156109511      1.488440607     -2.104972895 3
     7.734164267      1.488440607     -2.104972895 3
     3.867082133      3.721101518     -2.104972895 3
     6.445136889      3.721101518     -2.104972895 3
     9.023191645      3.721101518     -2.104972895 3
     5.156109511      5.953762429     -2.104972895 3
     7.734164267      5.953762429     -2.104972895 3
    10.312219023      5.953762429     -2.104972895 3
     0.000000000      0.000000000     -0.000000002 3
     2.578054756      0.000000000     -0.000000002 3
     5.156109511      0.000000000     -0.000000002 3
     1.289027378      2.232660911     -0.000000002 3
     3.867082133      2.232660911     -0.000000002 3
     6.445136889      2.232660911     -0.000000002 3
     2.578054756      4.465321822     -0.000000002 3
     5.156109511      4.465321822     -0.000000002 3
     7.734164267      4.465321822     -0.000000002 3
     1.289027378      0.744220304      2.104972893 3
     3.867082133      0.744220304      2.104972893 3
     6.445136889      0.744220304      2.104972893 3
     2.578054756      2.976881214      2.104972893 3
     5.156109511      2.976881214      2.104972893 3
     7.734164267      2.976881214      2.104972893 3
     3.867082133      5.209542125      2.104972893 3
     6.445136889      5.209542125      2.104972893 3
     9.023191645      5.209542125      2.104972893 3
     2.578054756      1.488440607      4.209945787 3
     5.156109511      1.488440607      4.209945787 3
     7.734164267      1.488440607      4.209945787 3
     3.867082133      3.721101518      4.209945787 3
     6.445136889      3.721101518      4.209945787 3
     9.023191645      3.721101518      4.209945787 3
     5.156109511      5.953762429      4.209945787 3
     7.734164267      5.953762429      4.209945787 3
    10.312219023      5.953762429      4.209945787 3
     0.000000000      0.000000000      6.314918680 3
     2.578054756      0.000000000      6.314918680 3
     5.156109511      0.000000000      6.314918680 3
     1.289027378      2.232660911      6.314918680 3
     3.867082133      2.232660911      6.314918680 3
     6.445136889      2.232660911      6.314918680 3
     2.578054756      4.465321822      6.314918680 3
     5.156109511      4.465321822      6.314918680 3
     7.734164267      4.465321822      6.314918680 3
     1.291407915      0.744968355      8.446496790 3
     3.869000632      0.743647796      8.447159494 3
     6.447416005      0.742177859      8.457672570 3
     2.578908028      2.974556812      8.446543106 3
     5.168114601      2.981869009      8.460854639 3
     7.724219199      2.982953483      8.461728718 3
     3.865760809      5.210310246      8.455518951 3
     6.446895112      5.197114389      8.460259568 3
     9.026249311      5.208546770      8.458201006 3
     2.589081855      1.482654087     10.587965174 3
     5.161266464      1.474011290     10.583056316 3
     7.747922451      1.473965171     10.586712897 3
     3.862805270      3.719532351     10.580232692 3
     6.449440324      3.718528155     10.684006776 3
     9.043893892      3.717031055     10.586359045 3
     5.155088647      5.959316877     10.579903792 3
     7.750023155      5.957750829     10.582169819 3
    10.318968922      5.950212024     10.669701041 3
     6.489547158      3.737728071     12.574352719 1
     6.513442573      3.755610602     13.748194405 2
     6.445305438      3.721042458     21.135463564 3
     6.445290411      2.212109732     23.107885199 3
     5.138770055      4.475477626     23.107885561 3
     7.752101813      4.475645322     23.107861344 3
     1.289027378      0.744220304     25.144756041 3
     3.867082133      0.744220304     25.144756041 3
     6.445136889      0.744220304     25.144756041 3
     2.578054756      2.976881214     25.144756041 3
     5.156109511      2.976881214     25.144756041 3
     7.734164267      2.976881214     25.144756041 3
     3.867082133      5.209542125     25.144756041 3
     6.445136889      5.209542125     25.144756041 3
     9.023191645      5.209542125     25.144756041 3
     2.578054756      1.488440607     27.249728934 3
     5.156109511      1.488440607     27.249728934 3
     7.734164267      1.488440607     27.249728934 3
     3.867082133      3.721101518     27.249728934 3
     6.445136889      3.721101518     27.249728934 3
     9.023191645      3.721101518     27.249728934 3
     5.156109511      5.953762429     27.249728934 3
     7.734164267      5.953762429     27.249728934 3
    10.312219023      5.953762429     27.249728934 3
     0.000000000      0.000000000     29.354701828 3
     2.578054756      0.000000000     29.354701828 3
     5.156109511      0.000000000     29.354701828 3
     1.289027378      2.232660911     29.354701828 3
     3.867082133      2.232660911     29.354701828 3
     6.445136889      2.232660911     29.354701828 3
     2.578054756      4.465321822     29.354701828 3
     5.156109511      4.465321822     29.354701828 3
     7.734164267      4.465321822     29.354701828 3
     1.289027378      0.744220304     31.459674720 3
     3.867082133      0.744220304     31.459674720 3
     6.445136889      0.744220304     31.459674720 3
     2.578054756      2.976881214     31.459674720 3
     5.156109511      2.976881214     31.459674720 3
     7.734164267      2.976881214     31.459674720 3
     3.867082133      5.209542125     31.459674720 3
     6.445136889      5.209542125     31.459674720 3
     9.023191645      5.209542125     31.459674720 3
     2.578054756      1.488440607     33.564647614 3
     5.156109511      1.488440607     33.564647614 3
     7.734164267      1.488440607     33.564647614 3
     3.867082133      3.721101518     33.564647614 3
     6.445136889      3.721101518     33.564647614 3
     9.023191645      3.721101518     33.564647614 3
     5.156109511      5.953762429     33.564647614 3
     7.734164267      5.953762429     33.564647614 3
    10.312219023      5.953762429     33.564647614 3
     0.000000000      0.000000000     35.669620507 3
     2.578054756      0.000000000     35.669620507 3
     5.156109511      0.000000000     35.669620507 3
     1.289027378      2.232660911     35.669620507 3
     3.867082133      2.232660911     35.669620507 3
     6.445136889      2.232660911     35.669620507 3
     2.578054756      4.465321822     35.669620507 3
     5.156109511      4.465321822     35.669620507 3
     7.734164267      4.465321822     35.669620507 3
     1.289027378      0.744220304     37.774593403 3
     3.867082133      0.744220304     37.774593403 3
     6.445136889      0.744220304     37.774593403 3
     2.578054756      2.976881214     37.774593403 3
     5.156109511      2.976881214     37.774593403 3
     7.734164267      2.976881214     37.774593403 3
     3.867082133      5.209542125     37.774593403 3
     6.445136889      5.209542125     37.774593403 3
     9.023191645      5.209542125     37.774593403 3
     2.578054756      1.488440607     39.879566297 3
     5.156109511      1.488440607     39.879566297 3
     7.734164267      1.488440607     39.879566297 3
     3.867082133      3.721101518     39.879566297 3
     6.445136889      3.721101518     39.879566297 3
     9.023191645      3.721101518     39.879566297 3
     5.156109511      5.953762429     39.879566297 3
     7.734164267      5.953762429     39.879566297 3
    10.312219023      5.953762429     39.879566297 3
     0.000000000      0.000000000     41.984539190 3
     2.578054756      0.000000000     41.984539190 3
     5.156109511      0.000000000     41.984539190 3
     1.289027378      2.232660911     41.984539190 3
     3.867082133      2.232660911     41.984539190 3
     6.445136889      2.232660911     41.984539190 3
     2.578054756      4.465321822     41.984539190 3
     5.156109511      4.465321822     41.984539190 3
     7.734164267      4.465321822     41.984539190 3
%endblock AtomicCoordinatesAndAtomicSpecies
