NumberOfAtoms 159
NumberOfSpecies 3
LatticeConstant 1.0 Ang
%block LatticeVectors
     7.734164266      0.000000000      0.000000000 
     3.867082134      6.697982733      0.000000000 
     0.000000000      0.000000000     48.299457874 
%endblock LatticeVectors
AtomicCoordinatesFormat  Ang
%block AtomicCoordinatesAndAtomicSpecies
     1.289027378      0.744220304     -4.209945789 3 # 1
     3.867082133      0.744220304     -4.209945789 3 # 2
     6.445136889      0.744220304     -4.209945789 3 # 3
     2.578054756      2.976881214     -4.209945789 3 # 4
     5.156109511      2.976881214     -4.209945789 3 # 5
     7.734164267      2.976881214     -4.209945789 3 # 6
     3.867082133      5.209542125     -4.209945789 3 # 7
     6.445136889      5.209542125     -4.209945789 3 # 8
     9.023191645      5.209542125     -4.209945789 3 # 9
     2.578054756      1.488440607     -2.104972895 3 # 10
     5.156109511      1.488440607     -2.104972895 3 # 11
     7.734164267      1.488440607     -2.104972895 3 # 12
     3.867082133      3.721101518     -2.104972895 3 # 13
     6.445136889      3.721101518     -2.104972895 3 # 14
     9.023191645      3.721101518     -2.104972895 3 # 15
     5.156109511      5.953762429     -2.104972895 3 # 16
     7.734164267      5.953762429     -2.104972895 3 # 17
    10.312219023      5.953762429     -2.104972895 3 # 18
     0.000000000      0.000000000     -0.000000002 3 # 19
     2.578054756      0.000000000     -0.000000002 3 # 20
     5.156109511      0.000000000     -0.000000002 3 # 21
     1.289027378      2.232660911     -0.000000002 3 # 22
     3.867082133      2.232660911     -0.000000002 3 # 23
     6.445136889      2.232660911     -0.000000002 3 # 24
     2.578054756      4.465321822     -0.000000002 3 # 25
     5.156109511      4.465321822     -0.000000002 3 # 26
     7.734164267      4.465321822     -0.000000002 3 # 27
     1.289027378      0.744220304      2.104972893 3 # 28
     3.867082133      0.744220304      2.104972893 3 # 29
     6.445136889      0.744220304      2.104972893 3 # 30
     2.578054756      2.976881214      2.104972893 3 # 31
     5.156109511      2.976881214      2.104972893 3 # 32
     7.734164267      2.976881214      2.104972893 3 # 33
     3.867082133      5.209542125      2.104972893 3 # 34
     6.445136889      5.209542125      2.104972893 3 # 35
     9.023191645      5.209542125      2.104972893 3 # 36
     2.578054756      1.488440607      4.209945787 3 # 37
     5.156109511      1.488440607      4.209945787 3 # 38
     7.734164267      1.488440607      4.209945787 3 # 39
     3.867082133      3.721101518      4.209945787 3 # 40
     6.445136889      3.721101518      4.209945787 3 # 41
     9.023191645      3.721101518      4.209945787 3 # 42
     5.156109511      5.953762429      4.209945787 3 # 43
     7.734164267      5.953762429      4.209945787 3 # 44
    10.312219023      5.953762429      4.209945787 3 # 45
     0.000000000      0.000000000      6.314918680 3 # 46
     2.578054756      0.000000000      6.314918680 3 # 47
     5.156109511      0.000000000      6.314918680 3 # 48
     1.289027378      2.232660911      6.314918680 3 # 49
     3.867082133      2.232660911      6.314918680 3 # 50
     6.445136889      2.232660911      6.314918680 3 # 51
     2.578054756      4.465321822      6.314918680 3 # 52
     5.156109511      4.465321822      6.314918680 3 # 53
     7.734164267      4.465321822      6.314918680 3 # 54
     1.291286297      0.744489108      8.447677829 3 # 55
     3.868438779      0.743496888      8.447103376 3 # 56
     6.447318595      0.741442177      8.456426952 3 # 57
     2.579076257      2.974932842      8.447530859 3 # 58
     5.168222669      2.982425634      8.461817884 3 # 59
     7.724874451      2.982511279      8.462355329 3 # 60
     3.866309532      5.210114635      8.456753599 3 # 61
     6.446543831      5.197068081      8.461250471 3 # 62
     9.026702194      5.209207130      8.456030023 3 # 63
     2.586023333      1.484194620     10.587818925 3 # 64
     5.159156708      1.475190140     10.581469065 3 # 65
     7.745145107      1.474637105     10.582951801 3 # 66
     3.862645491      3.719635280     10.579177063 3 # 67
     6.449758870      3.718191500     10.685898646 3 # 68
     9.041695325      3.718907983     10.582848166 3 # 69
     5.154863071      5.959347741     10.578865651 3 # 70
     7.747864725      5.959220080     10.580894068 3 # 71
    10.318324592      5.950662388     10.670489343 3 # 72
     6.489053957      3.738555059     12.575571171 1 # 73
     6.512794160      3.755596613     13.749776638 2 # 74
     6.445281728      3.721056598     21.131101143 3 # 75
     6.445318613      2.210580980     23.108322479 3 # 76
     5.137392937      4.476268492     23.108302668 3 # 77
     7.753440898      4.476382970     23.108311648 3 # 78
     1.289027378      0.744220304     25.144756041 3 # 79
     3.867082133      0.744220304     25.144756041 3 # 80
     6.445136889      0.744220304     25.144756041 3 # 81
     2.578054756      2.976881214     25.144756041 3 # 82
     5.156109511      2.976881214     25.144756041 3 # 83
     7.734164267      2.976881214     25.144756041 3 # 84
     3.867082133      5.209542125     25.144756041 3 # 85
     6.445136889      5.209542125     25.144756041 3 # 86
     9.023191645      5.209542125     25.144756041 3 # 87
     2.578054756      1.488440607     27.249728934 3 # 88
     5.156109511      1.488440607     27.249728934 3 # 89
     7.734164267      1.488440607     27.249728934 3 # 90
     3.867082133      3.721101518     27.249728934 3 # 91
     6.445136889      3.721101518     27.249728934 3 # 92
     9.023191645      3.721101518     27.249728934 3 # 93
     5.156109511      5.953762429     27.249728934 3 # 94
     7.734164267      5.953762429     27.249728934 3 # 95
    10.312219023      5.953762429     27.249728934 3 # 96
     0.000000000      0.000000000     29.354701828 3 # 97
     2.578054756      0.000000000     29.354701828 3 # 98
     5.156109511      0.000000000     29.354701828 3 # 99
     1.289027378      2.232660911     29.354701828 3 # 100
     3.867082133      2.232660911     29.354701828 3 # 101
     6.445136889      2.232660911     29.354701828 3 # 102
     2.578054756      4.465321822     29.354701828 3 # 103
     5.156109511      4.465321822     29.354701828 3 # 104
     7.734164267      4.465321822     29.354701828 3 # 105
     1.289027378      0.744220304     31.459674720 3 # 106
     3.867082133      0.744220304     31.459674720 3 # 107
     6.445136889      0.744220304     31.459674720 3 # 108
     2.578054756      2.976881214     31.459674720 3 # 109
     5.156109511      2.976881214     31.459674720 3 # 110
     7.734164267      2.976881214     31.459674720 3 # 111
     3.867082133      5.209542125     31.459674720 3 # 112
     6.445136889      5.209542125     31.459674720 3 # 113
     9.023191645      5.209542125     31.459674720 3 # 114
     2.578054756      1.488440607     33.564647614 3 # 115
     5.156109511      1.488440607     33.564647614 3 # 116
     7.734164267      1.488440607     33.564647614 3 # 117
     3.867082133      3.721101518     33.564647614 3 # 118
     6.445136889      3.721101518     33.564647614 3 # 119
     9.023191645      3.721101518     33.564647614 3 # 120
     5.156109511      5.953762429     33.564647614 3 # 121
     7.734164267      5.953762429     33.564647614 3 # 122
    10.312219023      5.953762429     33.564647614 3 # 123
     0.000000000      0.000000000     35.669620507 3 # 124
     2.578054756      0.000000000     35.669620507 3 # 125
     5.156109511      0.000000000     35.669620507 3 # 126
     1.289027378      2.232660911     35.669620507 3 # 127
     3.867082133      2.232660911     35.669620507 3 # 128
     6.445136889      2.232660911     35.669620507 3 # 129
     2.578054756      4.465321822     35.669620507 3 # 130
     5.156109511      4.465321822     35.669620507 3 # 131
     7.734164267      4.465321822     35.669620507 3 # 132
     1.289027378      0.744220304     37.774593403 3 # 133
     3.867082133      0.744220304     37.774593403 3 # 134
     6.445136889      0.744220304     37.774593403 3 # 135
     2.578054756      2.976881214     37.774593403 3 # 136
     5.156109511      2.976881214     37.774593403 3 # 137
     7.734164267      2.976881214     37.774593403 3 # 138
     3.867082133      5.209542125     37.774593403 3 # 139
     6.445136889      5.209542125     37.774593403 3 # 140
     9.023191645      5.209542125     37.774593403 3 # 141
     2.578054756      1.488440607     39.879566297 3 # 142
     5.156109511      1.488440607     39.879566297 3 # 143
     7.734164267      1.488440607     39.879566297 3 # 144
     3.867082133      3.721101518     39.879566297 3 # 145
     6.445136889      3.721101518     39.879566297 3 # 146
     9.023191645      3.721101518     39.879566297 3 # 147
     5.156109511      5.953762429     39.879566297 3 # 148
     7.734164267      5.953762429     39.879566297 3 # 149
    10.312219023      5.953762429     39.879566297 3 # 150
     0.000000000      0.000000000     41.984539190 3 # 151
     2.578054756      0.000000000     41.984539190 3 # 152
     5.156109511      0.000000000     41.984539190 3 # 153
     1.289027378      2.232660911     41.984539190 3 # 154
     3.867082133      2.232660911     41.984539190 3 # 155
     6.445136889      2.232660911     41.984539190 3 # 156
     2.578054756      4.465321822     41.984539190 3 # 157
     5.156109511      4.465321822     41.984539190 3 # 158
     7.734164267      4.465321822     41.984539190 3 # 159
%endblock AtomicCoordinatesAndAtomicSpecies
