NumberOfAtoms 83
NumberOfSpecies 5
LatticeConstant 1.0 Ang
%block LatticeVectors
     4.695000000      2.710659514      0.000000000 
     4.695000000     -2.710659514      0.000000000 
     0.000000000      0.000000000     70.434701000 
%endblock LatticeVectors
AtomicCoordinatesFormat  Ang
%block AtomicCoordinatesAndAtomicSpecies
     1.565000000     -0.903553000      0.760016000 4 # 1
     4.695000000     -0.903553000      0.760016000 4 # 2
     7.825000000     -0.903553000      0.760016000 4 # 3
     1.565000000     -0.903553000      1.922016000 3 # 4
     4.695000000     -0.903553000      1.922016000 3 # 5
     7.825000000     -0.903553000      1.922016000 3 # 6
     0.000000000      0.000000000      2.562687000 2 # 7
     3.130000000      0.000000000      2.562687000 2 # 8
     6.260000000      0.000000000      2.562687000 2 # 9
     0.000000000      0.000000000      4.484703000 3 # 10
     3.130000000      0.000000000      4.484703000 3 # 11
     6.260000000      0.000000000      4.484703000 3 # 12
     1.565000000     -0.903553000      5.125375000 2 # 13
     4.695000000     -0.903553000      5.125375000 2 # 14
     7.825000000     -0.903553000      5.125375000 2 # 15
     1.565000000     -0.903553000      7.047391000 3 # 16
     4.695000000     -0.903553000      7.047391000 3 # 17
     7.825000000     -0.903553000      7.047391000 3 # 18
     3.130000000     -1.807106000      7.688062000 2 # 19
     6.260000000     -1.807106000      7.688062000 2 # 20
     9.390000000     -1.807106000      7.688062000 2 # 21
     3.130000000     -1.807106000      9.610078000 3 # 22
     6.260000000     -1.807106000      9.610078000 3 # 23
     9.390000000     -1.807106000      9.610078000 3 # 24
     1.565000000     -0.903553000     10.250750000 2 # 25
     4.695000000     -0.903553000     10.250750000 2 # 26
     7.825000000     -0.903553000     10.250750000 2 # 27
     1.565000000     -0.903553000     12.172766000 3 # 28
     4.695000000     -0.903553000     12.172766000 3 # 29
     7.825000000     -0.903553000     12.172766000 3 # 30
     0.000000000      0.000000000     12.813437000 2 # 31
     3.130000000      0.000000000     12.813437000 2 # 32
     6.260000000      0.000000000     12.813437000 2 # 33
     0.000000000      0.000000000     14.735453000 3 # 34
     3.130000000      0.000000000     14.735453000 3 # 35
     6.260000000      0.000000000     14.735453000 3 # 36
     1.565000000     -0.903553000     15.376125000 2 # 37
     4.695000000     -0.903553000     15.376125000 2 # 38
     7.825000000     -0.903553000     15.376125000 2 # 39
     1.565000000     -0.903553000     17.298141000 3 # 40
     4.695000000     -0.903553000     17.298141000 3 # 41
     7.825000000     -0.903553000     17.298141000 3 # 42
     3.130000000     -1.807106000     17.938812000 2 # 43
     6.260000000     -1.807106000     17.938812000 2 # 44
     9.390000000     -1.807106000     17.938812000 2 # 45
     3.130974075     -1.807414085     19.863556013 3 # 46
     9.389444235     -1.807427533     19.863576484 3 # 47
     6.260243644     -1.808846324     19.863636094 3 # 48
     4.699062089     -0.902157711     20.497736298 2 # 49
     7.821387035     -0.902161652     20.497781778 2 # 50
     1.565289462     -0.908922084     20.498015260 2 # 51
     4.668276462     -0.920041426     22.428755118 3 # 52
     7.852479363     -0.920202625     22.428864579 3 # 53
     1.565588107     -0.873468223     22.429192849 3 # 54
     6.260392776     -0.001196758     22.832396276 2 # 55
     3.130493408     -0.000798917     23.094869983 2 # 56
     0.000478107     -0.000791951     23.094254406 2 # 57
     0.000991878      0.001273731     25.110056392 1 # 58
     3.130999142      0.001271547     25.113168980 1 # 59
     0.813856490      1.405158862     25.405479771 1 # 60
    -1.621200984      0.003324172     25.405837795 1 # 61
     0.810454946     -1.404503303     25.406122361 1 # 62
     2.317817382      1.405893205     25.407563420 1 # 63
     4.754000194      0.003314827     25.407669321 1 # 64
     2.321102036     -1.405160144     25.408208193 1 # 65
     0.000236130     -0.000087919     28.638264090 1 # 66
     3.912622965      1.355088194     28.642499369 1 # 67
     1.565442352     -0.000103358     28.642506070 1 # 68
     3.912659973     -1.355234640     28.642513395 1 # 69
     2.347751990      1.354988773     28.647258385 1 # 70
     4.694962582      0.000028350     28.647270484 1 # 71
     2.347945687     -1.355243883     28.647298105 1 # 72
     6.260209449     -0.000063560     28.654814590 1 # 73
     6.260199000     -0.000083000     32.848717000 5 # 74
     6.260199000     -0.000083000     35.442717000 5 # 75
     6.260199000     -0.000083000     38.036717000 5 # 76
     6.260199000     -0.000083000     40.630717000 5 # 77
     6.260199000     -0.000083000     43.224717000 5 # 78
     6.260199000     -0.000083000     45.818717000 5 # 79
     6.260199000     -0.000083000     48.412717000 5 # 80
     6.260199000     -0.000083000     51.006717000 5 # 81
     6.260199000     -0.000083000     53.600717000 5 # 82
     6.260199000     -0.000083000     56.194717000 5 # 83
%endblock AtomicCoordinatesAndAtomicSpecies
