NumberOfAtoms 4
NumberOfSpecies 1
LatticeConstant 1.0 Ang
%block LatticeVectors
     4.695000000      2.710659514      0.000000000 
     4.695000000     -2.710659514      0.000000000 
     0.000000000      0.000000000     10.376000000 
%endblock LatticeVectors
AtomicCoordinatesFormat  Ang
%block AtomicCoordinatesAndAtomicSpecies
     6.260199000     -0.000083000     35.442717000 1 # 1
     6.260199000     -0.000083000     38.036717000 1 # 2
     6.260199000     -0.000083000     40.630717000 1 # 3
     6.260199000     -0.000083000     43.224717000 1 # 4
%endblock AtomicCoordinatesAndAtomicSpecies
