# -----------------------------------------------------------------------------
# FDF for fcc100 bulk Au, Stacking: A,B,A,B
#
#
# -----------------------------------------------------------------------------
####################################
# NOTE:
NeglNonOverlapInt   True
####################################


SystemName       fcc111 bulk Cu PBE         # Descriptive name of the system
SystemLabel      ABAB	 	            # Short name for naming files

# Output options

PAO.BasisType split

%block 	PAO.BasisSizes
	Au_pbr	        SZP
%endblock PAO.BasisSizes

WriteCoorStep
WriteMullikenPop       1    

# Species and atoms

NumberOfSpecies        1       
NumberOfAtoms          4    
%block ChemicalSpeciesLabel
 1  79 Au_pbr
%endblock ChemicalSpeciesLabel

LatticeConstant       1.0 Ang 

%block LatticeVectors 
     2.955706000      0.000000000      0.000000000 1
     0.000000000      2.955706000      0.000000000 1
     0.000000000      0.000000000      8.360000000 1
%endblock LatticeVectors 

%block kgrid_Monkhorst_Pack
 3    0    0    0.0
 0    3    0    0.0
 0    0    50    0.0
%endblock kgrid_Monkhorst_Pack

# Atomic coordinates
AtomicCoordinatesFormat     Ang    
%block AtomicCoordinatesAndAtomicSpecies
     0.000000000      0.000000000      0.000000000 1
     1.477853000      1.477853000      2.090000000 1
     0.000000000      0.000000000      4.180000000 1
     1.477853000      1.477853000      6.270000000 1
%endblock AtomicCoordinatesAndAtomicSpecies

SolutionMethod        diagon        # OrderN or Diagon
ElectronicTemperature  25 meV       # Temp. for Fermi smearing

%include ./Default.fdf

