NumberOfAtoms=83
NumberOfSpecies=5 
LatticeConstant 1.0000 Ang
%block LatticeVectors 
4.695  2.7106595138452927  0.0
4.695  -2.7106595138452927  0.0
0.0  0.0  70.424373
%endblock LatticeVectors 
AtomicCoordinatesFormat Ang 
%block AtomicCoordinatesAndAtomicSpecies 
1.565  -0.903553    0.760016  4
4.695  -0.903553    0.760016  4
7.825  -0.903553    0.760016  4
1.565  -0.903553    1.922016  3
4.695  -0.903553    1.922016  3
7.825  -0.903553    1.922016  3
0.0  0.0    2.562687  2
3.13  0.0    2.562687  2
6.26  0.0    2.562687  2
0.0  0.0    4.484703  3
3.13  0.0    4.484703  3
6.26  0.0    4.484703  3
1.565  -0.903553    5.125375  2
4.695  -0.903553    5.125375  2
7.825  -0.903553    5.125375  2
1.565  -0.903553    7.047391  3
4.695  -0.903553    7.047391  3
7.825  -0.903553    7.047391  3
3.13  -1.807106    7.688062  2
6.26  -1.807106    7.688062  2
9.39  -1.807106    7.688062  2
3.13  -1.807106    9.610078  3
6.26  -1.807106    9.610078  3
9.39  -1.807106    9.610078  3
1.565  -0.903553    10.25075  2
4.695  -0.903553    10.25075  2
7.825  -0.903553    10.25075  2
1.565  -0.903553    12.172766  3
4.695  -0.903553    12.172766  3
7.825  -0.903553    12.172766  3
0.0  0.0    12.813437  2
3.13  0.0    12.813437  2
6.26  0.0    12.813437  2
0.0  0.0    14.735453  3
3.13  0.0    14.735453  3
6.26  0.0    14.735453  3
1.565  -0.903553    15.376125  2
4.695  -0.903553    15.376125  2
7.825  -0.903553    15.376125  2
1.565  -0.903553    17.298141  3
4.695  -0.903553    17.298141  3
7.825  -0.903553    17.298141  3
3.13  -1.807106    17.938812  2
6.26  -1.807106    17.938812  2
9.39  -1.807106    17.938812  2
3.130811  -1.807473    19.86397  3
9.389499  -1.807557    19.864065  3
6.260273  -1.808793    19.864066  3
4.698831  -0.90242    20.497658  2
7.821706  -0.902259    20.497823  2
1.565188  -0.908735    20.498103  2
4.668477  -0.920342    22.428178  3
7.852509  -0.920146    22.428409  3
1.565443  -0.873876    22.428813  3
6.260432  -0.001597    22.834144  2
3.13058  -0.001006    23.094549  2
0.000573  -0.001    23.094974  2
0.001077  0.001435    25.109639  1
3.131024  0.001365    25.112208  1
0.813794  1.405186    25.40585  1
-1.621098  0.003396    25.406425  1
0.810456  -1.404191    25.406686  1
2.318003  1.405884    25.40717  1
4.753834  0.003375    25.40734  1
2.321098  -1.404849    25.408039  1
0.0002  -5.8e-05    28.638389  1
3.912608  1.355073    28.642109  1
1.565438  -8.9e-05    28.642123  1
3.912581  -1.355191    28.642134  1
2.347517  1.355325    28.645277  1
4.695382  6.8e-05    28.645304  1
2.347729  -1.355636    28.645334  1
6.260199  -8.3e-05    28.648717  1
0.0002  -5.8e-05    32.838389  5
0.0002  -5.8e-05    35.432389  5
0.0002  -5.8e-05    38.026389  5
0.0002  -5.8e-05    40.620389  5
0.0002  -5.8e-05    43.214389  5
0.0002  -5.8e-05    45.808389  5
0.0002  -5.8e-05    48.402389  5
0.0002  -5.8e-05    50.99638899999999  5
0.0002  -5.8e-05    53.590389  5
0.0002  -5.8e-05    56.184388999999996  5
%endblock AtomicCoordinatesAndAtomicSpecies 
