NumberOfAtoms 216
NumberOfSpecies 1
LatticeConstant 1.0 Ang
%block LatticeVectors
 0.00   12.24  12.24
 12.24   0.    12.24
 12.24  12.24   0.0
%endblock LatticeVectors
AtomicCoordinatesFormat  Ang
%block AtomicCoordinatesAndAtomicSpecies
0.000000 0.000000 0.000000 1
0.000000 2.040000 2.040000 1
0.000000 4.080000 4.080000 1
0.000000 6.120000 6.120000 1
0.000000 8.160000 8.160000 1
0.000000 10.200000 10.200000 1
2.040000 0.000000 2.040000 1
2.040000 2.040000 4.080000 1
2.040000 4.080000 6.120000 1
2.040000 6.120000 8.160000 1
2.040000 8.160000 10.200000 1
2.040000 10.200000 12.240000 1
4.080000 0.000000 4.080000 1
4.080000 2.040000 6.120000 1
4.080000 4.080000 8.160000 1
4.080000 6.120000 10.200000 1
4.080000 8.160000 12.240000 1
4.080000 10.200000 14.280000 1
6.120000 0.000000 6.120000 1
6.120000 2.040000 8.160000 1
6.120000 4.080000 10.200000 1
6.120000 6.120000 12.240000 1
6.120000 8.160000 14.280000 1
6.120000 10.200000 16.320000 1
8.160000 0.000000 8.160000 1
8.160000 2.040000 10.200000 1
8.160000 4.080000 12.240000 1
8.160000 6.120000 14.280000 1
8.160000 8.160000 16.320000 1
8.160000 10.200000 18.360000 1
10.200000 0.000000 10.200000 1
10.200000 2.040000 12.240000 1
10.200000 4.080000 14.280000 1
10.200000 6.120000 16.320000 1
10.200000 8.160000 18.360000 1
10.200000 10.200000 20.400000 1
2.040000 2.040000 0.000000 1
2.040000 4.080000 2.040000 1
2.040000 6.120000 4.080000 1
2.040000 8.160000 6.120000 1
2.040000 10.200000 8.160000 1
2.040000 12.240000 10.200000 1
4.080000 2.040000 2.040000 1
4.080000 4.080000 4.080000 1
4.080000 6.120000 6.120000 1
4.080000 8.160000 8.160000 1
4.080000 10.200000 10.200000 1
4.080000 12.240000 12.240000 1
6.120000 2.040000 4.080000 1
6.120000 4.080000 6.120000 1
6.120000 6.120000 8.160000 1
6.120000 8.160000 10.200000 1
6.120000 10.200000 12.240000 1
6.120000 12.240000 14.280000 1
8.160000 2.040000 6.120000 1
8.160000 4.080000 8.160000 1
8.160000 6.120000 10.200000 1
8.160000 8.160000 12.240000 1
8.160000 10.200000 14.280000 1
8.160000 12.240000 16.320000 1
10.200000 2.040000 8.160000 1
10.200000 4.080000 10.200000 1
10.200000 6.120000 12.240000 1
10.200000 8.160000 14.280000 1
10.200000 10.200000 16.320000 1
10.200000 12.240000 18.360000 1
12.240000 2.040000 10.200000 1
12.240000 4.080000 12.240000 1
12.240000 6.120000 14.280000 1
12.240000 8.160000 16.320000 1
12.240000 10.200000 18.360000 1
12.240000 12.240000 20.400000 1
4.080000 4.080000 0.000000 1
4.080000 6.120000 2.040000 1
4.080000 8.160000 4.080000 1
4.080000 10.200000 6.120000 1
4.080000 12.240000 8.160000 1
4.080000 14.280000 10.200000 1
6.120000 4.080000 2.040000 1
6.120000 6.120000 4.080000 1
6.120000 8.160000 6.120000 1
6.120000 10.200000 8.160000 1
6.120000 12.240000 10.200000 1
6.120000 14.280000 12.240000 1
8.160000 4.080000 4.080000 1
8.160000 6.120000 6.120000 1
8.160000 8.160000 8.160000 1
8.160000 10.200000 10.200000 1
8.160000 12.240000 12.240000 1
8.160000 14.280000 14.280000 1
10.200000 4.080000 6.120000 1
10.200000 6.120000 8.160000 1
10.200000 8.160000 10.200000 1
10.200000 10.200000 12.240000 1
10.200000 12.240000 14.280000 1
10.200000 14.280000 16.320000 1
12.240000 4.080000 8.160000 1
12.240000 6.120000 10.200000 1
12.240000 8.160000 12.240000 1
12.240000 10.200000 14.280000 1
12.240000 12.240000 16.320000 1
12.240000 14.280000 18.360000 1
14.280000 4.080000 10.200000 1
14.280000 6.120000 12.240000 1
14.280000 8.160000 14.280000 1
14.280000 10.200000 16.320000 1
14.280000 12.240000 18.360000 1
14.280000 14.280000 20.400000 1
6.120000 6.120000 0.000000 1
6.120000 8.160000 2.040000 1
6.120000 10.200000 4.080000 1
6.120000 12.240000 6.120000 1
6.120000 14.280000 8.160000 1
6.120000 16.320000 10.200000 1
8.160000 6.120000 2.040000 1
8.160000 8.160000 4.080000 1
8.160000 10.200000 6.120000 1
8.160000 12.240000 8.160000 1
8.160000 14.280000 10.200000 1
8.160000 16.320000 12.240000 1
10.200000 6.120000 4.080000 1
10.200000 8.160000 6.120000 1
10.200000 10.200000 8.160000 1
10.200000 12.240000 10.200000 1
10.200000 14.280000 12.240000 1
10.200000 16.320000 14.280000 1
12.240000 6.120000 6.120000 1
12.240000 8.160000 8.160000 1
12.240000 10.200000 10.200000 1
12.240000 12.240000 12.240000 1
12.240000 14.280000 14.280000 1
12.240000 16.320000 16.320000 1
14.280000 6.120000 8.160000 1
14.280000 8.160000 10.200000 1
14.280000 10.200000 12.240000 1
14.280000 12.240000 14.280000 1
14.280000 14.280000 16.320000 1
14.280000 16.320000 18.360000 1
16.320000 6.120000 10.200000 1
16.320000 8.160000 12.240000 1
16.320000 10.200000 14.280000 1
16.320000 12.240000 16.320000 1
16.320000 14.280000 18.360000 1
16.320000 16.320000 20.400000 1
8.160000 8.160000 0.000000 1
8.160000 10.200000 2.040000 1
8.160000 12.240000 4.080000 1
8.160000 14.280000 6.120000 1
8.160000 16.320000 8.160000 1
8.160000 18.360000 10.200000 1
10.200000 8.160000 2.040000 1
10.200000 10.200000 4.080000 1
10.200000 12.240000 6.120000 1
10.200000 14.280000 8.160000 1
10.200000 16.320000 10.200000 1
10.200000 18.360000 12.240000 1
12.240000 8.160000 4.080000 1
12.240000 10.200000 6.120000 1
12.240000 12.240000 8.160000 1
12.240000 14.280000 10.200000 1
12.240000 16.320000 12.240000 1
12.240000 18.360000 14.280000 1
14.280000 8.160000 6.120000 1
14.280000 10.200000 8.160000 1
14.280000 12.240000 10.200000 1
14.280000 14.280000 12.240000 1
14.280000 16.320000 14.280000 1
14.280000 18.360000 16.320000 1
16.320000 8.160000 8.160000 1
16.320000 10.200000 10.200000 1
16.320000 12.240000 12.240000 1
16.320000 14.280000 14.280000 1
16.320000 16.320000 16.320000 1
16.320000 18.360000 18.360000 1
18.360000 8.160000 10.200000 1
18.360000 10.200000 12.240000 1
18.360000 12.240000 14.280000 1
18.360000 14.280000 16.320000 1
18.360000 16.320000 18.360000 1
18.360000 18.360000 20.400000 1
10.200000 10.200000 0.000000 1
10.200000 12.240000 2.040000 1
10.200000 14.280000 4.080000 1
10.200000 16.320000 6.120000 1
10.200000 18.360000 8.160000 1
10.200000 20.400000 10.200000 1
12.240000 10.200000 2.040000 1
12.240000 12.240000 4.080000 1
12.240000 14.280000 6.120000 1
12.240000 16.320000 8.160000 1
12.240000 18.360000 10.200000 1
12.240000 20.400000 12.240000 1
14.280000 10.200000 4.080000 1
14.280000 12.240000 6.120000 1
14.280000 14.280000 8.160000 1
14.280000 16.320000 10.200000 1
14.280000 18.360000 12.240000 1
14.280000 20.400000 14.280000 1
16.320000 10.200000 6.120000 1
16.320000 12.240000 8.160000 1
16.320000 14.280000 10.200000 1
16.320000 16.320000 12.240000 1
16.320000 18.360000 14.280000 1
16.320000 20.400000 16.320000 1
18.360000 10.200000 8.160000 1
18.360000 12.240000 10.200000 1
18.360000 14.280000 12.240000 1
18.360000 16.320000 14.280000 1
18.360000 18.360000 16.320000 1
18.360000 20.400000 18.360000 1
20.400000 10.200000 10.200000 1
20.400000 12.240000 12.240000 1
20.400000 14.280000 14.280000 1
20.400000 16.320000 16.320000 1
20.400000 18.360000 18.360000 1
20.400000 20.400000 20.400000 1
%endblock AtomicCoordinatesAndAtomicSpecies
