NumberOfAtoms 432
NumberOfSpecies 1
LatticeConstant 1.0 Ang
%block LatticeVectors
     0.000000000     12.240000000     12.240000000 
    12.240000000      0.000000000     12.240000000 
    12.240000000     12.240000000      0.000000000 
%endblock LatticeVectors
AtomicCoordinatesFormat  Ang
%block AtomicCoordinatesAndAtomicSpecies
     0.000000000      0.000000000      0.000000000 1
     0.000000000      2.040000000      2.040000000 1
     0.000000000      4.080000000      4.080000000 1
     0.000000000      6.120000000      6.120000000 1
     0.000000000      8.160000000      8.160000000 1
     0.000000000     10.200000000     10.200000000 1
     2.040000000      0.000000000      2.040000000 1
     2.040000000      2.040000000      4.080000000 1
     2.040000000      4.080000000      6.120000000 1
     2.040000000      6.120000000      8.160000000 1
     2.040000000      8.160000000     10.200000000 1
     2.040000000     10.200000000     12.240000000 1
     4.080000000      0.000000000      4.080000000 1
     4.080000000      2.040000000      6.120000000 1
     4.080000000      4.080000000      8.160000000 1
     4.080000000      6.120000000     10.200000000 1
     4.080000000      8.160000000     12.240000000 1
     4.080000000     10.200000000     14.280000000 1
     6.120000000      0.000000000      6.120000000 1
     6.120000000      2.040000000      8.160000000 1
     6.120000000      4.080000000     10.200000000 1
     6.120000000      6.120000000     12.240000000 1
     6.120000000      8.160000000     14.280000000 1
     6.120000000     10.200000000     16.320000000 1
     8.160000000      0.000000000      8.160000000 1
     8.160000000      2.040000000     10.200000000 1
     8.160000000      4.080000000     12.240000000 1
     8.160000000      6.120000000     14.280000000 1
     8.160000000      8.160000000     16.320000000 1
     8.160000000     10.200000000     18.360000000 1
    10.200000000      0.000000000     10.200000000 1
    10.200000000      2.040000000     12.240000000 1
    10.200000000      4.080000000     14.280000000 1
    10.200000000      6.120000000     16.320000000 1
    10.200000000      8.160000000     18.360000000 1
    10.200000000     10.200000000     20.400000000 1
     2.040000000      2.040000000      0.000000000 1
     2.040000000      4.080000000      2.040000000 1
     2.040000000      6.120000000      4.080000000 1
     2.040000000      8.160000000      6.120000000 1
     2.040000000     10.200000000      8.160000000 1
     2.040000000     12.240000000     10.200000000 1
     4.080000000      2.040000000      2.040000000 1
     4.080000000      4.080000000      4.080000000 1
     4.080000000      6.120000000      6.120000000 1
     4.080000000      8.160000000      8.160000000 1
     4.080000000     10.200000000     10.200000000 1
     4.080000000     12.240000000     12.240000000 1
     6.120000000      2.040000000      4.080000000 1
     6.120000000      4.080000000      6.120000000 1
     6.120000000      6.120000000      8.160000000 1
     6.120000000      8.160000000     10.200000000 1
     6.120000000     10.200000000     12.240000000 1
     6.120000000     12.240000000     14.280000000 1
     8.160000000      2.040000000      6.120000000 1
     8.160000000      4.080000000      8.160000000 1
     8.160000000      6.120000000     10.200000000 1
     8.160000000      8.160000000     12.240000000 1
     8.160000000     10.200000000     14.280000000 1
     8.160000000     12.240000000     16.320000000 1
    10.200000000      2.040000000      8.160000000 1
    10.200000000      4.080000000     10.200000000 1
    10.200000000      6.120000000     12.240000000 1
    10.200000000      8.160000000     14.280000000 1
    10.200000000     10.200000000     16.320000000 1
    10.200000000     12.240000000     18.360000000 1
    12.240000000      2.040000000     10.200000000 1
    12.240000000      4.080000000     12.240000000 1
    12.240000000      6.120000000     14.280000000 1
    12.240000000      8.160000000     16.320000000 1
    12.240000000     10.200000000     18.360000000 1
    12.240000000     12.240000000     20.400000000 1
     4.080000000      4.080000000      0.000000000 1
     4.080000000      6.120000000      2.040000000 1
     4.080000000      8.160000000      4.080000000 1
     4.080000000     10.200000000      6.120000000 1
     4.080000000     12.240000000      8.160000000 1
     4.080000000     14.280000000     10.200000000 1
     6.120000000      4.080000000      2.040000000 1
     6.120000000      6.120000000      4.080000000 1
     6.120000000      8.160000000      6.120000000 1
     6.120000000     10.200000000      8.160000000 1
     6.120000000     12.240000000     10.200000000 1
     6.120000000     14.280000000     12.240000000 1
     8.160000000      4.080000000      4.080000000 1
     8.160000000      6.120000000      6.120000000 1
     8.160000000      8.160000000      8.160000000 1
     8.160000000     10.200000000     10.200000000 1
     8.160000000     12.240000000     12.240000000 1
     8.160000000     14.280000000     14.280000000 1
    10.200000000      4.080000000      6.120000000 1
    10.200000000      6.120000000      8.160000000 1
    10.200000000      8.160000000     10.200000000 1
    10.200000000     10.200000000     12.240000000 1
    10.200000000     12.240000000     14.280000000 1
    10.200000000     14.280000000     16.320000000 1
    12.240000000      4.080000000      8.160000000 1
    12.240000000      6.120000000     10.200000000 1
    12.240000000      8.160000000     12.240000000 1
    12.240000000     10.200000000     14.280000000 1
    12.240000000     12.240000000     16.320000000 1
    12.240000000     14.280000000     18.360000000 1
    14.280000000      4.080000000     10.200000000 1
    14.280000000      6.120000000     12.240000000 1
    14.280000000      8.160000000     14.280000000 1
    14.280000000     10.200000000     16.320000000 1
    14.280000000     12.240000000     18.360000000 1
    14.280000000     14.280000000     20.400000000 1
     6.120000000      6.120000000      0.000000000 1
     6.120000000      8.160000000      2.040000000 1
     6.120000000     10.200000000      4.080000000 1
     6.120000000     12.240000000      6.120000000 1
     6.120000000     14.280000000      8.160000000 1
     6.120000000     16.320000000     10.200000000 1
     8.160000000      6.120000000      2.040000000 1
     8.160000000      8.160000000      4.080000000 1
     8.160000000     10.200000000      6.120000000 1
     8.160000000     12.240000000      8.160000000 1
     8.160000000     14.280000000     10.200000000 1
     8.160000000     16.320000000     12.240000000 1
    10.200000000      6.120000000      4.080000000 1
    10.200000000      8.160000000      6.120000000 1
    10.200000000     10.200000000      8.160000000 1
    10.200000000     12.240000000     10.200000000 1
    10.200000000     14.280000000     12.240000000 1
    10.200000000     16.320000000     14.280000000 1
    12.240000000      6.120000000      6.120000000 1
    12.240000000      8.160000000      8.160000000 1
    12.240000000     10.200000000     10.200000000 1
    12.240000000     12.240000000     12.240000000 1
    12.240000000     14.280000000     14.280000000 1
    12.240000000     16.320000000     16.320000000 1
    14.280000000      6.120000000      8.160000000 1
    14.280000000      8.160000000     10.200000000 1
    14.280000000     10.200000000     12.240000000 1
    14.280000000     12.240000000     14.280000000 1
    14.280000000     14.280000000     16.320000000 1
    14.280000000     16.320000000     18.360000000 1
    16.320000000      6.120000000     10.200000000 1
    16.320000000      8.160000000     12.240000000 1
    16.320000000     10.200000000     14.280000000 1
    16.320000000     12.240000000     16.320000000 1
    16.320000000     14.280000000     18.360000000 1
    16.320000000     16.320000000     20.400000000 1
     8.160000000      8.160000000      0.000000000 1
     8.160000000     10.200000000      2.040000000 1
     8.160000000     12.240000000      4.080000000 1
     8.160000000     14.280000000      6.120000000 1
     8.160000000     16.320000000      8.160000000 1
     8.160000000     18.360000000     10.200000000 1
    10.200000000      8.160000000      2.040000000 1
    10.200000000     10.200000000      4.080000000 1
    10.200000000     12.240000000      6.120000000 1
    10.200000000     14.280000000      8.160000000 1
    10.200000000     16.320000000     10.200000000 1
    10.200000000     18.360000000     12.240000000 1
    12.240000000      8.160000000      4.080000000 1
    12.240000000     10.200000000      6.120000000 1
    12.240000000     12.240000000      8.160000000 1
    12.240000000     14.280000000     10.200000000 1
    12.240000000     16.320000000     12.240000000 1
    12.240000000     18.360000000     14.280000000 1
    14.280000000      8.160000000      6.120000000 1
    14.280000000     10.200000000      8.160000000 1
    14.280000000     12.240000000     10.200000000 1
    14.280000000     14.280000000     12.240000000 1
    14.280000000     16.320000000     14.280000000 1
    14.280000000     18.360000000     16.320000000 1
    16.320000000      8.160000000      8.160000000 1
    16.320000000     10.200000000     10.200000000 1
    16.320000000     12.240000000     12.240000000 1
    16.320000000     14.280000000     14.280000000 1
    16.320000000     16.320000000     16.320000000 1
    16.320000000     18.360000000     18.360000000 1
    18.360000000      8.160000000     10.200000000 1
    18.360000000     10.200000000     12.240000000 1
    18.360000000     12.240000000     14.280000000 1
    18.360000000     14.280000000     16.320000000 1
    18.360000000     16.320000000     18.360000000 1
    18.360000000     18.360000000     20.400000000 1
    10.200000000     10.200000000      0.000000000 1
    10.200000000     12.240000000      2.040000000 1
    10.200000000     14.280000000      4.080000000 1
    10.200000000     16.320000000      6.120000000 1
    10.200000000     18.360000000      8.160000000 1
    10.200000000     20.400000000     10.200000000 1
    12.240000000     10.200000000      2.040000000 1
    12.240000000     12.240000000      4.080000000 1
    12.240000000     14.280000000      6.120000000 1
    12.240000000     16.320000000      8.160000000 1
    12.240000000     18.360000000     10.200000000 1
    12.240000000     20.400000000     12.240000000 1
    14.280000000     10.200000000      4.080000000 1
    14.280000000     12.240000000      6.120000000 1
    14.280000000     14.280000000      8.160000000 1
    14.280000000     16.320000000     10.200000000 1
    14.280000000     18.360000000     12.240000000 1
    14.280000000     20.400000000     14.280000000 1
    16.320000000     10.200000000      6.120000000 1
    16.320000000     12.240000000      8.160000000 1
    16.320000000     14.280000000     10.200000000 1
    16.320000000     16.320000000     12.240000000 1
    16.320000000     18.360000000     14.280000000 1
    16.320000000     20.400000000     16.320000000 1
    18.360000000     10.200000000      8.160000000 1
    18.360000000     12.240000000     10.200000000 1
    18.360000000     14.280000000     12.240000000 1
    18.360000000     16.320000000     14.280000000 1
    18.360000000     18.360000000     16.320000000 1
    18.360000000     20.400000000     18.360000000 1
    20.400000000     10.200000000     10.200000000 1
    20.400000000     12.240000000     12.240000000 1
    20.400000000     14.280000000     14.280000000 1
    20.400000000     16.320000000     16.320000000 1
    20.400000000     18.360000000     18.360000000 1
    20.400000000     20.400000000     20.400000000 1
     0.000000000      0.000000000      0.020000000 1
     0.000000000      2.040000000      2.060000000 1
     0.000000000      4.080000000      4.100000000 1
     0.000000000      6.120000000      6.140000000 1
     0.000000000      8.160000000      8.180000000 1
     0.000000000     10.200000000     10.220000000 1
     2.040000000      0.000000000      2.060000000 1
     2.040000000      2.040000000      4.100000000 1
     2.040000000      4.080000000      6.140000000 1
     2.040000000      6.120000000      8.180000000 1
     2.040000000      8.160000000     10.220000000 1
     2.040000000     10.200000000     12.260000000 1
     4.080000000      0.000000000      4.100000000 1
     4.080000000      2.040000000      6.140000000 1
     4.080000000      4.080000000      8.180000000 1
     4.080000000      6.120000000     10.220000000 1
     4.080000000      8.160000000     12.260000000 1
     4.080000000     10.200000000     14.300000000 1
     6.120000000      0.000000000      6.140000000 1
     6.120000000      2.040000000      8.180000000 1
     6.120000000      4.080000000     10.220000000 1
     6.120000000      6.120000000     12.260000000 1
     6.120000000      8.160000000     14.300000000 1
     6.120000000     10.200000000     16.340000000 1
     8.160000000      0.000000000      8.180000000 1
     8.160000000      2.040000000     10.220000000 1
     8.160000000      4.080000000     12.260000000 1
     8.160000000      6.120000000     14.300000000 1
     8.160000000      8.160000000     16.340000000 1
     8.160000000     10.200000000     18.380000000 1
    10.200000000      0.000000000     10.220000000 1
    10.200000000      2.040000000     12.260000000 1
    10.200000000      4.080000000     14.300000000 1
    10.200000000      6.120000000     16.340000000 1
    10.200000000      8.160000000     18.380000000 1
    10.200000000     10.200000000     20.420000000 1
     2.040000000      2.040000000      0.020000000 1
     2.040000000      4.080000000      2.060000000 1
     2.040000000      6.120000000      4.100000000 1
     2.040000000      8.160000000      6.140000000 1
     2.040000000     10.200000000      8.180000000 1
     2.040000000     12.240000000     10.220000000 1
     4.080000000      2.040000000      2.060000000 1
     4.080000000      4.080000000      4.100000000 1
     4.080000000      6.120000000      6.140000000 1
     4.080000000      8.160000000      8.180000000 1
     4.080000000     10.200000000     10.220000000 1
     4.080000000     12.240000000     12.260000000 1
     6.120000000      2.040000000      4.100000000 1
     6.120000000      4.080000000      6.140000000 1
     6.120000000      6.120000000      8.180000000 1
     6.120000000      8.160000000     10.220000000 1
     6.120000000     10.200000000     12.260000000 1
     6.120000000     12.240000000     14.300000000 1
     8.160000000      2.040000000      6.140000000 1
     8.160000000      4.080000000      8.180000000 1
     8.160000000      6.120000000     10.220000000 1
     8.160000000      8.160000000     12.260000000 1
     8.160000000     10.200000000     14.300000000 1
     8.160000000     12.240000000     16.340000000 1
    10.200000000      2.040000000      8.180000000 1
    10.200000000      4.080000000     10.220000000 1
    10.200000000      6.120000000     12.260000000 1
    10.200000000      8.160000000     14.300000000 1
    10.200000000     10.200000000     16.340000000 1
    10.200000000     12.240000000     18.380000000 1
    12.240000000      2.040000000     10.220000000 1
    12.240000000      4.080000000     12.260000000 1
    12.240000000      6.120000000     14.300000000 1
    12.240000000      8.160000000     16.340000000 1
    12.240000000     10.200000000     18.380000000 1
    12.240000000     12.240000000     20.420000000 1
     4.080000000      4.080000000      0.020000000 1
     4.080000000      6.120000000      2.060000000 1
     4.080000000      8.160000000      4.100000000 1
     4.080000000     10.200000000      6.140000000 1
     4.080000000     12.240000000      8.180000000 1
     4.080000000     14.280000000     10.220000000 1
     6.120000000      4.080000000      2.060000000 1
     6.120000000      6.120000000      4.100000000 1
     6.120000000      8.160000000      6.140000000 1
     6.120000000     10.200000000      8.180000000 1
     6.120000000     12.240000000     10.220000000 1
     6.120000000     14.280000000     12.260000000 1
     8.160000000      4.080000000      4.100000000 1
     8.160000000      6.120000000      6.140000000 1
     8.160000000      8.160000000      8.180000000 1
     8.160000000     10.200000000     10.220000000 1
     8.160000000     12.240000000     12.260000000 1
     8.160000000     14.280000000     14.300000000 1
    10.200000000      4.080000000      6.140000000 1
    10.200000000      6.120000000      8.180000000 1
    10.200000000      8.160000000     10.220000000 1
    10.200000000     10.200000000     12.260000000 1
    10.200000000     12.240000000     14.300000000 1
    10.200000000     14.280000000     16.340000000 1
    12.240000000      4.080000000      8.180000000 1
    12.240000000      6.120000000     10.220000000 1
    12.240000000      8.160000000     12.260000000 1
    12.240000000     10.200000000     14.300000000 1
    12.240000000     12.240000000     16.340000000 1
    12.240000000     14.280000000     18.380000000 1
    14.280000000      4.080000000     10.220000000 1
    14.280000000      6.120000000     12.260000000 1
    14.280000000      8.160000000     14.300000000 1
    14.280000000     10.200000000     16.340000000 1
    14.280000000     12.240000000     18.380000000 1
    14.280000000     14.280000000     20.420000000 1
     6.120000000      6.120000000      0.020000000 1
     6.120000000      8.160000000      2.060000000 1
     6.120000000     10.200000000      4.100000000 1
     6.120000000     12.240000000      6.140000000 1
     6.120000000     14.280000000      8.180000000 1
     6.120000000     16.320000000     10.220000000 1
     8.160000000      6.120000000      2.060000000 1
     8.160000000      8.160000000      4.100000000 1
     8.160000000     10.200000000      6.140000000 1
     8.160000000     12.240000000      8.180000000 1
     8.160000000     14.280000000     10.220000000 1
     8.160000000     16.320000000     12.260000000 1
    10.200000000      6.120000000      4.100000000 1
    10.200000000      8.160000000      6.140000000 1
    10.200000000     10.200000000      8.180000000 1
    10.200000000     12.240000000     10.220000000 1
    10.200000000     14.280000000     12.260000000 1
    10.200000000     16.320000000     14.300000000 1
    12.240000000      6.120000000      6.140000000 1
    12.240000000      8.160000000      8.180000000 1
    12.240000000     10.200000000     10.220000000 1
    12.240000000     12.240000000     12.260000000 1
    12.240000000     14.280000000     14.300000000 1
    12.240000000     16.320000000     16.340000000 1
    14.280000000      6.120000000      8.180000000 1
    14.280000000      8.160000000     10.220000000 1
    14.280000000     10.200000000     12.260000000 1
    14.280000000     12.240000000     14.300000000 1
    14.280000000     14.280000000     16.340000000 1
    14.280000000     16.320000000     18.380000000 1
    16.320000000      6.120000000     10.220000000 1
    16.320000000      8.160000000     12.260000000 1
    16.320000000     10.200000000     14.300000000 1
    16.320000000     12.240000000     16.340000000 1
    16.320000000     14.280000000     18.380000000 1
    16.320000000     16.320000000     20.420000000 1
     8.160000000      8.160000000      0.020000000 1
     8.160000000     10.200000000      2.060000000 1
     8.160000000     12.240000000      4.100000000 1
     8.160000000     14.280000000      6.140000000 1
     8.160000000     16.320000000      8.180000000 1
     8.160000000     18.360000000     10.220000000 1
    10.200000000      8.160000000      2.060000000 1
    10.200000000     10.200000000      4.100000000 1
    10.200000000     12.240000000      6.140000000 1
    10.200000000     14.280000000      8.180000000 1
    10.200000000     16.320000000     10.220000000 1
    10.200000000     18.360000000     12.260000000 1
    12.240000000      8.160000000      4.100000000 1
    12.240000000     10.200000000      6.140000000 1
    12.240000000     12.240000000      8.180000000 1
    12.240000000     14.280000000     10.220000000 1
    12.240000000     16.320000000     12.260000000 1
    12.240000000     18.360000000     14.300000000 1
    14.280000000      8.160000000      6.140000000 1
    14.280000000     10.200000000      8.180000000 1
    14.280000000     12.240000000     10.220000000 1
    14.280000000     14.280000000     12.260000000 1
    14.280000000     16.320000000     14.300000000 1
    14.280000000     18.360000000     16.340000000 1
    16.320000000      8.160000000      8.180000000 1
    16.320000000     10.200000000     10.220000000 1
    16.320000000     12.240000000     12.260000000 1
    16.320000000     14.280000000     14.300000000 1
    16.320000000     16.320000000     16.340000000 1
    16.320000000     18.360000000     18.380000000 1
    18.360000000      8.160000000     10.220000000 1
    18.360000000     10.200000000     12.260000000 1
    18.360000000     12.240000000     14.300000000 1
    18.360000000     14.280000000     16.340000000 1
    18.360000000     16.320000000     18.380000000 1
    18.360000000     18.360000000     20.420000000 1
    10.200000000     10.200000000      0.020000000 1
    10.200000000     12.240000000      2.060000000 1
    10.200000000     14.280000000      4.100000000 1
    10.200000000     16.320000000      6.140000000 1
    10.200000000     18.360000000      8.180000000 1
    10.200000000     20.400000000     10.220000000 1
    12.240000000     10.200000000      2.060000000 1
    12.240000000     12.240000000      4.100000000 1
    12.240000000     14.280000000      6.140000000 1
    12.240000000     16.320000000      8.180000000 1
    12.240000000     18.360000000     10.220000000 1
    12.240000000     20.400000000     12.260000000 1
    14.280000000     10.200000000      4.100000000 1
    14.280000000     12.240000000      6.140000000 1
    14.280000000     14.280000000      8.180000000 1
    14.280000000     16.320000000     10.220000000 1
    14.280000000     18.360000000     12.260000000 1
    14.280000000     20.400000000     14.300000000 1
    16.320000000     10.200000000      6.140000000 1
    16.320000000     12.240000000      8.180000000 1
    16.320000000     14.280000000     10.220000000 1
    16.320000000     16.320000000     12.260000000 1
    16.320000000     18.360000000     14.300000000 1
    16.320000000     20.400000000     16.340000000 1
    18.360000000     10.200000000      8.180000000 1
    18.360000000     12.240000000     10.220000000 1
    18.360000000     14.280000000     12.260000000 1
    18.360000000     16.320000000     14.300000000 1
    18.360000000     18.360000000     16.340000000 1
    18.360000000     20.400000000     18.380000000 1
    20.400000000     10.200000000     10.220000000 1
    20.400000000     12.240000000     12.260000000 1
    20.400000000     14.280000000     14.300000000 1
    20.400000000     16.320000000     16.340000000 1
    20.400000000     18.360000000     18.380000000 1
    20.400000000     20.400000000     20.420000000 1
%endblock AtomicCoordinatesAndAtomicSpecies
