NumberOfAtoms 38
NumberOfSpecies 3
LatticeConstant 1.0 Ang
%block LatticeVectors
     7.734172103      0.000000000      0.000000000 
     0.000000000     10.937771080      0.000000000 
     0.000000000      0.000000000     13.078057368 
%endblock LatticeVectors
AtomicCoordinatesFormat  Ang
%block AtomicCoordinatesAndAtomicSpecies
     0.000000000      3.645923695      0.000000000 3 # 1
     2.578057369      3.645923695      0.000000000 3 # 2
     5.156114735      3.645923695      0.000000000 3 # 3
     0.000000000      7.291847389      0.000000000 3 # 4
     2.578057369      7.291847389      0.000000000 3 # 5
     5.156114735      7.291847389      0.000000000 3 # 6
     0.000000000     10.937771084      0.000000000 3 # 7
     2.578057369     10.937771084      0.000000000 3 # 8
     5.156114735     10.937771084      0.000000000 3 # 9
    -1.289028684      1.822961848      1.289028684 3 # 10
     1.289028685      1.822961848      1.289028684 3 # 11
     3.867086051      1.822961848      1.289028684 3 # 12
    -1.289028684      5.468885542      1.289028684 3 # 13
     1.289081601      5.468885542      1.289028684 3 # 14
     3.867086053      5.468885542      1.289028684 3 # 15
    -1.289028684      9.114809237      1.289028684 3 # 16
     1.289081601      9.114809237      1.289028684 3 # 17
     3.867086053      9.114809237      1.289028684 3 # 18
     0.000008702     10.935062843      2.615252049 3 # 19
    -0.000016471      7.284926668      2.608020230 3 # 20
     5.154345184     10.937572476      2.615611037 3 # 21
     2.579883807     10.937625528      2.615544132 3 # 22
     2.577483277      7.280014593      2.613816663 3 # 23
     5.156753649      7.280263850      2.613886838 3 # 24
     0.000081002      3.661853419      2.606607919 3 # 25
     2.574615417      3.651505168      2.614487673 3 # 26
     5.159592643      3.651209905      2.614536724 3 # 27
     3.867070113      9.095892176      3.772805033 3 # 28
     1.311136949      5.521336139      3.919934909 3 # 29
    -1.310941793      5.520003843      3.919540120 3 # 30
     3.867035644      1.832586932      3.771792662 3 # 31
     3.867148777      5.454627099      3.781357209 3 # 32
    -1.285799925      1.822767446      3.775311301 3 # 33
     1.285858241      1.822831634      3.775323778 3 # 34
     1.287534136      9.108833719      3.773952127 3 # 35
    -1.287501562      9.108810976      3.773981115 3 # 36
     0.000572368      4.951128304      5.245427180 2 # 37
     0.000955586      3.923476075      5.083015171 1 # 38
%endblock AtomicCoordinatesAndAtomicSpecies
